256
Lattice="16.39280000 0 0 0 16.39280000 0 0 0 16.39280000" Properties=species:S:1:pos:R:3 pbc="T T T" Frame=0
Ag 0.00000000 0.00000000 0.00000000
Ag 0.00000000 2.04910000 2.04910000
Ag 2.04910000 0.00000000 2.04910000
Ag 2.04910000 2.04910000 0.00000000
Ag 0.00000000 0.00000000 4.09820000
Ag 0.00000000 2.04910000 6.14730000
Ag 2.04910000 0.00000000 6.14730000
Ag 2.04910000 2.04910000 4.09820000
Ag 0.00000000 0.00000000 8.19640000
Ag 0.00000000 2.04910000 10.24550000
Ag 2.04910000 0.00000000 10.24550000
Ag 2.04910000 2.04910000 8.19640000
Ag 0.00000000 0.00000000 12.29460000
Ag 0.00000000 2.04910000 14.34370000
Ag 2.04910000 0.00000000 14.34370000
Ag 2.04910000 2.04910000 12.29460000
Ag 0.00000000 4.09820000 0.00000000
Ag 0.00000000 6.14730000 2.04910000
Ag 2.04910000 4.09820000 2.04910000
Ag 2.04910000 6.14730000 0.00000000
Ag 0.00000000 4.09820000 4.09820000
Ag 0.00000000 6.14730000 6.14730000
Ag 2.04910000 4.09820000 6.14730000
Ag 2.04910000 6.14730000 4.09820000
Ag 0.00000000 4.09820000 8.19640000
Ag 0.00000000 6.14730000 10.24550000
Ag 2.04910000 4.09820000 10.24550000
Ag 2.04910000 6.14730000 8.19640000
Ag 0.00000000 4.09820000 12.29460000
Ag 0.00000000 6.14730000 14.34370000
Ag 2.04910000 4.09820000 14.34370000
Ag 2.04910000 6.14730000 12.29460000
Ag 0.00000000 8.19640000 0.00000000
Ag 0.00000000 10.24550000 2.04910000
Ag 2.04910000 8.19640000 2.04910000
Ag 2.04910000 10.24550000 0.00000000
Ag 0.00000000 8.19640000 4.09820000
Ag 0.00000000 10.24550000 6.14730000
Ag 2.04910000 8.19640000 6.14730000
Ag 2.04910000 10.24550000 4.09820000
Ag 0.00000000 8.19640000 8.19640000
Ag 0.00000000 10.24550000 10.24550000
Ag 2.04910000 8.19640000 10.24550000
Ag 2.04910000 10.24550000 8.19640000
Ag 0.00000000 8.19640000 12.29460000
Ag 0.00000000 10.24550000 14.34370000
Ag 2.04910000 8.19640000 14.34370000
Ag 2.04910000 10.24550000 12.29460000
Ag 0.00000000 12.29460000 0.00000000
Ag 0.00000000 14.34370000 2.04910000
Ag 2.04910000 12.29460000 2.04910000
Ag 2.04910000 14.34370000 0.00000000
Ag 0.00000000 12.29460000 4.09820000
Ag 0.00000000 14.34370000 6.14730000
Ag 2.04910000 12.29460000 6.14730000
Ag 2.04910000 14.34370000 4.09820000
Ag 0.00000000 12.29460000 8.19640000
Ag 0.00000000 14.34370000 10.24550000
Ag 2.04910000 12.29460000 10.24550000
Ag 2.04910000 14.34370000 8.19640000
Ag 0.00000000 12.29460000 12.29460000
Ag 0.00000000 14.34370000 14.34370000
Ag 2.04910000 12.29460000 14.34370000
Ag 2.04910000 14.34370000 12.29460000
Ag 4.09820000 0.00000000 0.00000000
Ag 4.09820000 2.04910000 2.04910000
Ag 6.14730000 0.00000000 2.04910000
Ag 6.14730000 2.04910000 0.00000000
Ag 4.09820000 0.00000000 4.09820000
Ag 4.09820000 2.04910000 6.14730000
Ag 6.14730000 0.00000000 6.14730000
Ag 6.14730000 2.04910000 4.09820000
Ag 4.09820000 0.00000000 8.19640000
Ag 4.09820000 2.04910000 10.24550000
Ag 6.14730000 0.00000000 10.24550000
Ag 6.14730000 2.04910000 8.19640000
Ag 4.09820000 0.00000000 12.29460000
Ag 4.09820000 2.04910000 14.34370000
Ag 6.14730000 0.00000000 14.34370000
Ag 6.14730000 2.04910000 12.29460000
Ag 4.09820000 4.09820000 0.00000000
Ag 4.09820000 6.14730000 2.04910000
Ag 6.14730000 4.09820000 2.04910000
Ag 6.14730000 6.14730000 0.00000000
Ag 4.09820000 4.09820000 4.09820000
Ag 4.09820000 6.14730000 6.14730000
Ag 6.14730000 4.09820000 6.14730000
Ag 6.14730000 6.14730000 4.09820000
Ag 4.09820000 4.09820000 8.19640000
Ag 4.09820000 6.14730000 10.24550000
Ag 6.14730000 4.09820000 10.24550000
Ag 6.14730000 6.14730000 8.19640000
Ag 4.09820000 4.09820000 12.29460000
Ag 4.09820000 6.14730000 14.34370000
Ag 6.14730000 4.09820000 14.34370000
Ag 6.14730000 6.14730000 12.29460000
Ag 4.09820000 8.19640000 0.00000000
Ag 4.09820000 10.24550000 2.04910000
Ag 6.14730000 8.19640000 2.04910000
Ag 6.14730000 10.24550000 0.00000000
Ag 4.09820000 8.19640000 4.09820000
Ag 4.09820000 10.24550000 6.14730000
Ag 6.14730000 8.19640000 6.14730000
Ag 6.14730000 10.24550000 4.09820000
Ag 4.09820000 8.19640000 8.19640000
Ag 4.09820000 10.24550000 10.24550000
Ag 6.14730000 8.19640000 10.24550000
Ag 6.14730000 10.24550000 8.19640000
Ag 4.09820000 8.19640000 12.29460000
Ag 4.09820000 10.24550000 14.34370000
Ag 6.14730000 8.19640000 14.34370000
Ag 6.14730000 10.24550000 12.29460000
Ag 4.09820000 12.29460000 0.00000000
Ag 4.09820000 14.34370000 2.04910000
Ag 6.14730000 12.29460000 2.04910000
Ag 6.14730000 14.34370000 0.00000000
Ag 4.09820000 12.29460000 4.09820000
Ag 4.09820000 14.34370000 6.14730000
Ag 6.14730000 12.29460000 6.14730000
Ag 6.14730000 14.34370000 4.09820000
Ag 4.09820000 12.29460000 8.19640000
Ag 4.09820000 14.34370000 10.24550000
Ag 6.14730000 12.29460000 10.24550000
Ag 6.14730000 14.34370000 8.19640000
Ag 4.09820000 12.29460000 12.29460000
Ag 4.09820000 14.34370000 14.34370000
Ag 6.14730000 12.29460000 14.34370000
Ag 6.14730000 14.34370000 12.29460000
Ag 8.19640000 0.00000000 0.00000000
Ag 8.19640000 2.04910000 2.04910000
Ag 10.24550000 0.00000000 2.04910000
Ag 10.24550000 2.04910000 0.00000000
Ag 8.19640000 0.00000000 4.09820000
Ag 8.19640000 2.04910000 6.14730000
Ag 10.24550000 0.00000000 6.14730000
Ag 10.24550000 2.04910000 4.09820000
Ag 8.19640000 0.00000000 8.19640000
Ag 8.19640000 2.04910000 10.24550000
Ag 10.24550000 0.00000000 10.24550000
Ag 10.24550000 2.04910000 8.19640000
Ag 8.19640000 0.00000000 12.29460000
Ag 8.19640000 2.04910000 14.34370000
Ag 10.24550000 0.00000000 14.34370000
Ag 10.24550000 2.04910000 12.29460000
Ag 8.19640000 4.09820000 0.00000000
Ag 8.19640000 6.14730000 2.04910000
Ag 10.24550000 4.09820000 2.04910000
Ag 10.24550000 6.14730000 0.00000000
Ag 8.19640000 4.09820000 4.09820000
Ag 8.19640000 6.14730000 6.14730000
Ag 10.24550000 4.09820000 6.14730000
Ag 10.24550000 6.14730000 4.09820000
Ag 8.19640000 4.09820000 8.19640000
Ag 8.19640000 6.14730000 10.24550000
Ag 10.24550000 4.09820000 10.24550000
Ag 10.24550000 6.14730000 8.19640000
Ag 8.19640000 4.09820000 12.29460000
Ag 8.19640000 6.14730000 14.34370000
Ag 10.24550000 4.09820000 14.34370000
Ag 10.24550000 6.14730000 12.29460000
Ag 8.19640000 8.19640000 0.00000000
Ag 8.19640000 10.24550000 2.04910000
Ag 10.24550000 8.19640000 2.04910000
Ag 10.24550000 10.24550000 0.00000000
Ag 8.19640000 8.19640000 4.09820000
Ag 8.19640000 10.24550000 6.14730000
Ag 10.24550000 8.19640000 6.14730000
Ag 10.24550000 10.24550000 4.09820000
Ag 8.19640000 8.19640000 8.19640000
Ag 8.19640000 10.24550000 10.24550000
Ag 10.24550000 8.19640000 10.24550000
Ag 10.24550000 10.24550000 8.19640000
Ag 8.19640000 8.19640000 12.29460000
Ag 8.19640000 10.24550000 14.34370000
Ag 10.24550000 8.19640000 14.34370000
Ag 10.24550000 10.24550000 12.29460000
Ag 8.19640000 12.29460000 0.00000000
Ag 8.19640000 14.34370000 2.04910000
Ag 10.24550000 12.29460000 2.04910000
Ag 10.24550000 14.34370000 0.00000000
Ag 8.19640000 12.29460000 4.09820000
Ag 8.19640000 14.34370000 6.14730000
Ag 10.24550000 12.29460000 6.14730000
Ag 10.24550000 14.34370000 4.09820000
Ag 8.19640000 12.29460000 8.19640000
Ag 8.19640000 14.34370000 10.24550000
Ag 10.24550000 12.29460000 10.24550000
Ag 10.24550000 14.34370000 8.19640000
Ag 8.19640000 12.29460000 12.29460000
Ag 8.19640000 14.34370000 14.34370000
Ag 10.24550000 12.29460000 14.34370000
Ag 10.24550000 14.34370000 12.29460000
Ag 12.29460000 0.00000000 0.00000000
Ag 12.29460000 2.04910000 2.04910000
Ag 14.34370000 0.00000000 2.04910000
Ag 14.34370000 2.04910000 0.00000000
Ag 12.29460000 0.00000000 4.09820000
Ag 12.29460000 2.04910000 6.14730000
Ag 14.34370000 0.00000000 6.14730000
Ag 14.34370000 2.04910000 4.09820000
Ag 12.29460000 0.00000000 8.19640000
Ag 12.29460000 2.04910000 10.24550000
Ag 14.34370000 0.00000000 10.24550000
Ag 14.34370000 2.04910000 8.19640000
Ag 12.29460000 0.00000000 12.29460000
Ag 12.29460000 2.04910000 14.34370000
Ag 14.34370000 0.00000000 14.34370000
Ag 14.34370000 2.04910000 12.29460000
Ag 12.29460000 4.09820000 0.00000000
Ag 12.29460000 6.14730000 2.04910000
Ag 14.34370000 4.09820000 2.04910000
Ag 14.34370000 6.14730000 0.00000000
Ag 12.29460000 4.09820000 4.09820000
Ag 12.29460000 6.14730000 6.14730000
Ag 14.34370000 4.09820000 6.14730000
Ag 14.34370000 6.14730000 4.09820000
Ag 12.29460000 4.09820000 8.19640000
Ag 12.29460000 6.14730000 10.24550000
Ag 14.34370000 4.09820000 10.24550000
Ag 14.34370000 6.14730000 8.19640000
Ag 12.29460000 4.09820000 12.29460000
Ag 12.29460000 6.14730000 14.34370000
Ag 14.34370000 4.09820000 14.34370000
Ag 14.34370000 6.14730000 12.29460000
Ag 12.29460000 8.19640000 0.00000000
Ag 12.29460000 10.24550000 2.04910000
Ag 14.34370000 8.19640000 2.04910000
Ag 14.34370000 10.24550000 0.00000000
Ag 12.29460000 8.19640000 4.09820000
Ag 12.29460000 10.24550000 6.14730000
Ag 14.34370000 8.19640000 6.14730000
Ag 14.34370000 10.24550000 4.09820000
Ag 12.29460000 8.19640000 8.19640000
Ag 12.29460000 10.24550000 10.24550000
Ag 14.34370000 8.19640000 10.24550000
Ag 14.34370000 10.24550000 8.19640000
Ag 12.29460000 8.19640000 12.29460000
Ag 12.29460000 10.24550000 14.34370000
Ag 14.34370000 8.19640000 14.34370000
Ag 14.34370000 10.24550000 12.29460000
Ag 12.29460000 12.29460000 0.00000000
Ag 12.29460000 14.34370000 2.04910000
Ag 14.34370000 12.29460000 2.04910000
Ag 14.34370000 14.34370000 0.00000000
Ag 12.29460000 12.29460000 4.09820000
Ag 12.29460000 14.34370000 6.14730000
Ag 14.34370000 12.29460000 6.14730000
Ag 14.34370000 14.34370000 4.09820000
Ag 12.29460000 12.29460000 8.19640000
Ag 12.29460000 14.34370000 10.24550000
Ag 14.34370000 12.29460000 10.24550000
Ag 14.34370000 14.34370000 8.19640000
Ag 12.29460000 12.29460000 12.29460000
Ag 12.29460000 14.34370000 14.34370000
Ag 14.34370000 12.29460000 14.34370000
Ag 14.34370000 14.34370000 12.29460000
256
Lattice="16.39280000 0 0 0 16.39280000 0 0 0 16.39280000" Properties=species:S:1:pos:R:3 pbc="T T T" Frame=1
Ag 0.00355808 0.00711185 16.38806373
Ag 16.37936084 2.04227492 2.03062482
Ag 2.05411654 0.02701685 2.04023616
Ag 2.04088265 2.06042394 0.00741046
Ag 0.00532538 16.37630165 4.09797288
Ag 0.01688205 2.02538885 6.13887695
Ag 2.01670001 16.36942477 6.11233668
Ag 2.04813251 2.02658794 4.10352026
Ag 0.00652611 16.39081063 8.14880593
Ag 16.38590568 2.04966568 10.24788867
Ag 2.02341644 16.38515627 10.22718672
Ag 2.03703521 2.07097922 8.18118919
Ag 0.00288547 0.01837454 12.28388051
Ag 0.00147793 2.05318741 14.34587250
Ag 2.02941462 0.00293965 14.37020440
Ag 2.02312714 2.06692680 12.29726997
Ag 16.38446164 4.13792922 0.01507276
Ag 16.37375105 6.15086276 2.06049682
Ag 2.04896960 4.11276419 2.04830543
Ag 2.06535747 6.17646715 16.38075126
Ag 0.00744375 4.09066621 4.10117373
Ag 16.37355559 6.13752372 6.14408983
Ag 2.06965089 4.12201386 6.12211470
Ag 2.03753942 6.16156204 4.06042524
Ag 16.38751071 4.09795427 8.22069049
Ag 0.01662076 6.14260053 10.23917218
Ag 2.04796896 4.12892252 10.23795370
Ag 2.04679797 6.15555145 8.19449053
Ag 16.39253657 4.07884542 12.29499427
Ag 16.38806956 6.17077945 14.35648044
Ag 2.05199707 4.11276544 14.33788520
Ag 2.07291800 6.14868782 12.30603306
Ag 16.37149762 8.20471408 16.36118976
Ag 16.35720505 10.24094611 2.03278549
Ag 2.05581385 8.24119131 2.03361912
Ag 2.04079061 10.25108907 0.01009454
Ag 0.00040901 8.19422475 4.11197391
Ag 0.01362007 10.22716554 6.14682665
Ag 2.05328312 8.17773185 6.15249801
Ag 2.03633304 10.26550437 4.10222041
Ag 0.00477376 8.18668606 8.19422642
Ag 16.35819697 10.22552837 10.25296109
Ag 2.01202679 8.21383789 10.21286022
Ag 2.06700357 10.23115890 8.21190362
Ag 0.00645856 8.16834961 12.31894938
Ag 0.03145596 10.24584046 14.33886062
Ag 2.04969158 8.17956885 14.36499424
Ag 2.04228085 10.24573751 12.28007826
Ag 16.38470667 12.27190143 0.02411529
Ag 0.00088138 14.36366701 2.04983638
Ag 2.03929939 12.28995428 2.03905146
Ag 2.05318869 14.33798993 16.38768810
Ag 16.36996613 12.28050210 4.13021119
Ag 16.38342754 14.32474802 6.15413385
Ag 2.07978603 12.26824831 6.14408367
Ag 2.04082244 14.31133451 4.11242600
Ag 0.00344646 12.29722323 8.18245970
Ag 0.01223776 14.33488423 10.24320572
Ag 2.03138557 12.27259757 10.27140353
Ag 2.04301814 14.35060688 8.19617264
Ag 16.38787141 12.28628920 12.30722799
Ag 16.39047371 14.34227705 14.34485367
Ag 2.07527869 12.30923687 14.35188035
Ag 2.04185733 14.31893219 12.31338839
Ag 4.12015540 16.39195276 0.01071755
Ag 4.11631220 2.06678787 2.06679640
Ag 6.14250576 0.03071870 2.02577311
Ag 6.16719714 2.06002173 0.01680127
Ag 4.13739094 0.02963984 4.07671433
Ag 4.06924621 2.06625269 6.12847085
Ag 6.15081127 0.01769295 6.11627655
Ag 6.11105015 2.05591222 4.09967421
Ag 4.09680754 0.00224772 8.18007925
Ag 4.07233098 2.04738131 10.22713562
Ag 6.11921324 0.01131129 10.24464332
Ag 6.15850519 2.03175570 8.18427598
Ag 4.08221988 16.37764692 12.29894577
Ag 4.08697820 2.05702459 14.35090198
Ag 6.18978971 16.36800132 14.36121454
Ag 6.14935177 2.04973145 12.26782745
Ag 4.09252036 4.11377686 16.39179508
Ag 4.10352797 6.14361244 2.07162021
Ag 6.15076406 4.05787663 2.03658686
Ag 6.11323587 6.08700301 16.38331302
Ag 4.12719417 4.10109461 4.07634432
Ag 4.08411525 6.17052908 6.15055531
Ag 6.15166949 4.09885736 6.14858392
Ag 6.16633754 6.15900127 4.10294653
Ag 4.08213570 4.10956416 8.18371944
Ag 4.12286587 6.12462889 10.24356717
Ag 6.15057303 4.07430611 10.27851645
Ag 6.17867875 6.13978034 8.21151363
Ag 4.10901094 4.04968522 12.29992017
Ag 4.10068750 6.15022234 14.32329032
Ag 6.14576393 4.09579746 14.36659053
Ag 6.15713984 6.14884197 12.32412538
Ag 4.09160737 8.19048817 16.35887387
Ag 4.13191100 10.26537860 2.06697788
Ag 6.16372958 8.20008658 2.05332069
Ag 6.14619405 10.24278014 0.00134838
Ag 4.13048344 8.20873337 4.09760150
Ag 4.09082798 10.23488845 6.17863047
Ag 6.16038989 8.19907761 6.14172556
Ag 6.12982997 10.24595170 4.11532018
Ag 4.09462321 8.19331400 8.19275964
Ag 4.10367552 10.21659707 10.24136855
Ag 6.13455390 8.21463426 10.23111803
Ag 6.16171086 10.27617578 8.19077436
Ag 4.08997961 8.20171729 12.29493895
Ag 4.08268147 10.25574380 14.38255048
Ag 6.14602530 8.19418145 14.32429241
Ag 6.15673577 10.22297928 12.27431276
Ag 4.12624975 12.27904140 0.02150436
Ag 4.13067971 14.35015312 2.06048341
Ag 6.18843873 12.29245602 2.03850319
Ag 6.12550382 14.34601834 0.02876726
Ag 4.12031817 12.27821661 4.08233288
Ag 4.09214113 14.35101257 6.14349331
Ag 6.15468352 12.30202503 6.14193236
Ag 6.15024664 14.34934967 4.09692905
Ag 4.11125865 12.33191602 8.20830155
Ag 4.10249518 14.31311239 10.25334139
Ag 6.11368759 12.26921546 10.26246174
Ag 6.16436355 14.34252167 8.16415340
Ag 4.09461597 12.28265784 12.30736444
Ag 4.14493105 14.34954960 14.32954070
Ag 6.12881791 12.29505551 14.34068919
Ag 6.12911018 14.34725601 12.27307427
Ag 8.22127913 0.02169080 0.02138674
Ag 8.19098727 2.06063643 2.04727546
Ag 10.24186119 16.38779893 2.02486880
Ag 10.22162960 2.06594299 16.38988911
Ag 8.20384267 0.02088904 4.06535967
Ag 8.18487206 2.05383039 6.15531669
Ag 10.24140829 0.02125064 6.15188240
Ag 10.22604525 2.03290179 4.11406757
Ag 8.20894824 16.35824606 8.22276361
Ag 8.21142904 2.07579261 10.23855555
Ag 10.24346792 16.37297945 10.29431529
Ag 10.24570102 2.08093102 8.18483006
Ag 8.20265124 16.36280893 12.28770049
Ag 8.21870594 2.02659598 14.36420219
Ag 10.25557245 16.37439557 14.33452445
Ag 10.24009629 2.04963740 12.28477939
Ag 8.18436911 4.09426506 16.37344322
Ag 8.17491102 6.14762785 2.06629549
Ag 10.21987794 4.10007339 2.03719915
Ag 10.23024895 6.16471818 16.38341023
Ag 8.22832515 4.08467814 4.10615938
Ag 8.19556771 6.13426920 6.15900224
Ag 10.24620977 4.11110997 6.14689495
Ag 10.22823540 6.14697246 4.09936501
Ag 8.21797655 4.08236052 8.19619506
Ag 8.16682328 6.16140225 10.22533801
Ag 10.21475255 4.09888287 10.26734252
Ag 10.22009324 6.12788121 8.18295121
Ag 8.17829896 4.10704447 12.28012142
Ag 8.18611463 6.15990935 14.32992471
Ag 10.25732060 4.08184254 14.32070042
Ag 10.21431695 6.18427525 12.28901626
Ag 8.20411810 8.19732571 0.00339735
Ag 8.20102905 10.28317780 2.02994279
Ag 10.21935636 8.17868376 2.02421626
Ag 10.26331464 10.26256941 16.37453124
Ag 8.17350208 8.19136661 4.12523506
Ag 8.14629128 10.25713714 6.12746744
Ag 10.26877111 8.17743705 6.14268868
Ag 10.22001321 10.22806176 4.12502441
Ag 8.21567560 8.19062517 8.17993794
Ag 8.16392925 10.23948394 10.24530018
Ag 10.24756272 8.19625073 10.22420880
Ag 10.24797946 10.24643501 8.22138794
Ag 8.23555045 8.19552132 12.28017207
Ag 8.19865787 10.23517141 14.33003297
Ag 10.24812533 8.17832757 14.35559690
Ag 10.24739244 10.25170032 12.29140065
Ag 8.18583541 12.27826217 16.38815639
Ag 8.18944838 14.34989863 2.04926186
Ag 10.22325609 12.29784532 2.02388238
Ag 10.23729905 14.33946424 16.35393942
Ag 8.20171045 12.29904453 4.09559857
Ag 8.19204551 14.33832135 6.12899513
Ag 10.24394937 12.28541132 6.14994030
Ag 10.22619122 14.34978005 4.10125903
Ag 8.19733082 12.28793656 8.20759539
Ag 8.16753608 14.35347498 10.25057232
Ag 10.25453988 12.30340924 10.23358456
Ag 10.24408608 14.35734741 8.20529590
Ag 8.20355427 12.26728773 12.30522728
Ag 8.22176582 14.36433106 14.34878492
Ag 10.21907633 12.31411850 14.34116022
Ag 10.20076372 14.35196321 12.26663869
Ag 12.27333859 16.38226283 0.02501422
Ag 12.29082967 2.05592547 2.08322570
Ag 14.37761711 16.39221639 2.04502738
Ag 14.32283016 2.03762480 0.00882276
Ag 12.30581732 0.00364645 4.11774977
Ag 12.28339169 2.04972753 6.16173703
Ag 14.35820499 0.02197287 6.15532627
Ag 14.34147810 2.05767848 4.07958305
Ag 12.26661077 0.01249211 8.19587044
Ag 12.30393072 2.01814680 10.23918305
Ag 14.33600077 16.37774972 10.20274576
Ag 14.34104392 2.06766378 8.20426037
Ag 12.28708316 0.00114806 12.30982166
Ag 12.24539444 2.04818911 14.35476892
Ag 14.36005040 0.03408705 14.36602932
Ag 14.35299407 2.05628194 12.31019930
Ag 12.28764077 4.09907881 0.01796293
Ag 12.33535201 6.14595851 2.04857931
Ag 14.35104781 4.12520643 2.04916393
Ag 14.37534641 6.13077832 16.38985396
Ag 12.29421197 4.11484618 4.11865422
Ag 12.26956410 6.13124697 6.15444585
Ag 14.33480825 4.07053574 6.16755041
Ag 14.35667114 6.15807787 4.09007272
Ag 12.31748267 4.09518260 8.21818164
Ag 12.28048822 6.13257204 10.24992241
Ag 14.33397113 4.11266155 10.25110319
Ag 14.32963316 6.15043569 8.19015094
Ag 12.31551480 4.08779228 12.28693168
Ag 12.32132020 6.19136898 14.38201068
Ag 14.34829108 4.10375489 14.37367895
Ag 14.34492849 6.13000461 12.29731854
Ag 12.30718550 8.18228675 16.36220064
Ag 12.27064552 10.25960960 2.03510929
Ag 14.34431964 8.20239087 2.06137339
Ag 14.34064880 10.25626662 16.37602285
Ag 12.29094497 8.17823933 4.11989985
Ag 12.29741459 10.23299290 6.14182467
Ag 14.34296093 8.21118400 6.11782579
Ag 14.32738182 10.23980058 4.14668506
Ag 12.31663897 8.19570086 8.21051599
Ag 12.33741388 10.24290872 10.23916866
Ag 14.37069910 8.20675995 10.25879403
Ag 14.33778177 10.28374015 8.22907156
Ag 12.30888405 8.21097009 12.25627830
Ag 12.31027893 10.24299612 14.35212701
Ag 14.36035481 8.19168706 14.31164954
Ag 14.35445374 10.23301001 12.28902182
Ag 12.28657414 12.28982875 16.34916449
Ag 12.32129521 14.34970457 2.07090067
Ag 14.38476673 12.29638016 2.01532276
Ag 14.33024600 14.32226868 16.38351582
Ag 12.29935327 12.25778084 4.10492719
Ag 12.26924579 14.35100357 6.14566702
Ag 14.34100799 12.29466822 6.13785083
Ag 14.33551549 14.31305878 4.09829320
Ag 12.33322544 12.33413978 8.22194924
Ag 12.31171805 14.33240241 10.27401864
Ag 14.34647850 12.29515188 10.24110511
Ag 14.34903630 14.33716807 8.19505764
Ag 12.27744884 12.28905808 12.33882958
Ag 12.29703206 14.34087734 14.35398496
Ag 14.36108803 12.27476672 14.34007464
Ag 14.36490650 14.35059575 12.29764175
256
Lattice="16.39280000 0 0 0 16.39280000 0 0 0 16.39280000" Properties=species:S:1:pos:R:3 pbc="T T T" Frame=2
Ag 0.00658206 0.01257014 16.38405892
Ag 16.36771087 2.03821573 2.01425346
Ag 2.06026930 0.05008723 2.03257505
Ag 2.03409092 2.07284663 0.01441749
Ag 0.00845402 16.36028555 4.09673604
Ag 0.03187584 2.00717073 6.13027342
Ag 1.99055018 16.34708389 6.08013687
Ag 2.04703709 2.00771892 4.10604777
Ag 0.01220637 16.38918439 8.10721567
Ag 16.37890817 2.04990654 10.24843346
Ag 2.00077776 16.37822945 10.21036033
Ag 2.02545489 2.09066762 8.16629587
Ag 0.00512438 0.03409601 12.27420127
Ag 0.00314786 2.05929601 14.35043692
Ag 2.01308115 0.00526084 14.39370675
Ag 2.00058709 2.08179137 12.29903787
Ag 16.37965546 4.17239977 0.02844679
Ag 16.35876695 6.15744070 2.06992316
Ag 2.04840667 4.12543414 2.04747736
Ag 2.07931849 6.20260645 16.37244131
Ag 0.01404075 4.08278692 4.10400142
Ag 16.35596052 6.12747995 6.14156055
Ag 2.08675449 4.14527826 6.09757761
Ag 2.02770613 6.17623611 4.02615045
Ag 16.38274307 4.09822904 8.24084737
Ag 0.03047940 6.13861261 10.23493412
Ag 2.04762540 4.15619396 10.23216690
Ag 2.04446793 6.16258309 8.19224263
Ag 16.39189593 4.06416522 12.29596938
Ag 16.38509938 6.18913106 14.36664158
Ag 2.05343892 4.12698334 14.33383858
Ag 2.09468253 6.14956664 12.31479646
Ag 16.35165993 8.21304769 16.33440589
Ag 16.32464172 10.23509387 2.02071392
Ag 2.06195184 8.28259510 2.01967502
Ag 2.03377059 10.25677213 0.01985204
Ag 0.00205513 8.19356991 4.12324080
Ag 0.02639940 10.21032632 6.14955997
Ag 2.05654328 8.16108006 6.15556506
Ag 2.02553232 10.28243569 4.10474827
Ag 0.00605018 8.17828675 8.18986980
Ag 16.32826952 10.20882447 10.25975274
Ag 1.97963188 8.22758858 10.18573508
Ag 2.08200403 10.22025812 8.22605275
Ag 0.01461024 8.14248132 12.33997413
Ag 0.06114852 10.24646030 14.33404173
Ag 2.05066783 8.16642456 14.38235752
Ag 2.03625246 10.24392862 12.26812266
Ag 16.37972467 12.25303158 0.04255333
Ag 0.00330046 14.38091549 2.05029454
Ag 2.03023525 12.28612842 2.03117385
Ag 2.05890933 14.33254315 16.38400049
Ag 16.34968420 12.26670156 4.15783096
Ag 16.37459250 14.30611801 6.15944049
Ag 2.10812745 12.24453526 6.14290244
Ag 2.03467075 14.28095876 4.12321975
Ag 0.00841267 12.29786405 8.16991247
Ag 0.02289368 14.32670262 10.24090684
Ag 2.01525257 12.25156096 10.29348774
Ag 2.03798195 14.35548217 8.19542240
Ag 16.38327073 12.27815381 12.31883425
Ag 16.38778244 14.34063329 14.34726225
Ag 2.09911419 12.32256786 14.36131112
Ag 2.03533352 14.29768776 12.33071769
Ag 4.13892927 0.00013816 0.01927967
Ag 4.12971495 2.08372891 2.07975819
Ag 6.14048041 0.05896472 2.00538795
Ag 6.18393054 2.06912539 0.02900674
Ag 4.17014871 0.05399054 4.05722663
Ag 4.04248349 2.08132158 6.11234165
Ag 6.15498329 0.03373127 6.08842322
Ag 6.08262949 2.06390453 4.10188571
Ag 4.09415711 0.00407930 8.16354104
Ag 4.04665383 2.04545446 10.20928660
Ag 6.09302796 0.02173935 10.24282670
Ag 6.16768603 2.01650374 8.17343312
Ag 4.06551514 16.36569344 12.30331734
Ag 4.07793060 2.06161301 14.35861300
Ag 6.22858651 16.34761855 14.37710604
Ag 6.15238540 2.04631133 12.24681946
Ag 4.08456742 4.12617907 16.39138052
Ag 4.10960485 6.14226340 2.09111191
Ag 6.15568898 4.02384639 2.02682133
Ag 6.08340161 6.03593108 16.37604409
Ag 4.15235192 4.10639310 4.05761209
Ag 4.07377069 6.19137047 6.15191610
Ag 6.15488645 4.10015877 6.15004759
Ag 6.18338927 6.16697717 4.10803465
Ag 4.06964149 4.11989344 8.17190512
Ag 4.14596149 6.10495680 10.24302976
Ag 6.15250918 4.05279487 10.30510741
Ag 6.20551658 6.13195057 8.22380626
Ag 4.11847960 4.00642349 12.30482990
Ag 4.10352629 6.15152430 14.30361920
Ag 6.14458948 4.09038414 14.38457362
Ag 6.16511176 6.15068496 12.34879605
Ag 4.08864423 8.18516936 16.33073375
Ag 4.16250297 10.28222574 2.08183773
Ag 6.17873582 8.20369081 2.05498405
Ag 6.14614990 10.23817963 0.00146742
Ag 4.15792156 8.22042497 4.09721850
Ag 4.08533398 10.22531889 6.20730087
Ag 6.17083229 8.20041692 6.14015405
Ag 6.11549883 10.24740409 4.12998364
Ag 4.09351658 8.18881665 8.19016071
Ag 4.10732695 10.19119109 10.23704616
Ag 6.12351315 8.22923719 10.21740980
Ag 6.17320625 10.30316577 8.18514823
Ag 4.08121604 8.20704816 12.29463780
Ag 4.06846947 10.26416146 14.41582848
Ag 6.14540811 8.19303544 14.30760571
Ag 6.16380309 10.20177688 12.25869525
Ag 4.15112054 12.26655406 0.04250468
Ag 4.15801709 14.35556784 2.07241451
Ag 6.22588723 12.29109488 2.03068195
Ag 6.10926235 14.34787174 0.05403955
Ag 4.14094198 12.26451523 4.06841688
Ag 4.08694057 14.35847873 6.13797996
Ag 6.15949325 12.30989686 6.13630191
Ag 6.15379415 14.35518773 4.09495143
Ag 4.12206013 12.36474475 8.21901583
Ag 4.10421423 14.28684798 10.26007562
Ag 6.08433712 12.24674072 10.27826971
Ag 6.17940282 14.34241746 8.13530132
Ag 4.09115355 12.26918884 12.31918292
Ag 4.18612526 14.35563599 14.31849822
Ag 6.11448721 12.29514144 14.33735437
Ag 6.11453098 14.34924952 12.25394052
Ag 8.24343033 0.03976373 0.04099770
Ag 8.18694417 2.07169082 2.04686430
Ag 10.24001000 16.38301133 2.00449232
Ag 10.20172092 2.08156922 16.38891940
Ag 8.20880609 0.04026843 4.03523939
Ag 8.17426065 2.05710001 6.16244673
Ag 10.23520343 0.04007402 6.15636224
Ag 10.21010328 2.01895328 4.12789645
Ag 8.22065498 16.32916844 8.24661628
Ag 8.22478740 2.09608097 10.23182754
Ag 10.24216429 16.35653952 10.33601557
Ag 10.24604833 2.10874621 8.17629239
Ag 8.20526070 16.33899890 12.28138631
Ag 8.23806568 2.00602840 14.37942910
Ag 10.26480284 16.35824556 14.32592287
Ag 10.23428608 2.04972875 12.27577915
Ag 8.17519834 4.09280068 16.35514148
Ag 8.15378758 6.14616340 2.08040601
Ag 10.19752773 4.10326464 2.02679197
Ag 10.21607653 6.17737984 16.37519280
Ag 8.25483092 4.07190169 4.11366664
Ag 8.19452258 6.12185273 6.16904432
Ag 10.24741185 4.12136959 6.14649200
Ag 10.21257684 6.14717640 4.09859282
Ag 8.23502597 4.06820322 8.19623319
Ag 8.13980152 6.17440202 10.20804774
Ag 10.18902678 4.10134739 10.28782554
Ag 10.19874673 6.10985760 8.17280494
Ag 8.16204504 4.11518771 12.27014154
Ag 8.17680597 6.17057227 14.31891980
Ag 10.26742822 4.07130858 14.29856562
Ag 10.18887592 6.21574990 12.28405591
Ag 8.20806464 8.19821228 0.00537194
Ag 8.20598536 10.31405848 2.01418366
Ag 10.19670393 8.16359282 2.00313007
Ag 10.27871806 10.27664163 16.35615438
Ag 8.15422790 8.18799766 4.14880462
Ag 8.10348463 10.26774832 6.11131403
Ag 10.28830368 8.16107312 6.14073904
Ag 10.19607983 10.21094737 4.14788103
Ag 8.23284615 8.18764450 8.16352865
Ag 8.13647219 10.23397499 10.24441378
Ag 10.25004633 8.19656267 10.20348408
Ag 10.25131440 10.24800463 8.24258186
Ag 8.26914979 8.19627666 12.26591384
Ag 8.20034877 10.22449231 14.31819793
Ag 10.25138488 8.16437944 14.36502780
Ag 10.25092659 10.25644495 12.28743757
Ag 8.17534446 12.26531620 16.38029002
Ag 8.18324778 14.35646902 2.04799940
Ag 10.20502744 12.30325697 2.00127717
Ag 10.23022208 14.33490037 16.32171598
Ag 8.20647214 12.30303121 4.09288932
Ag 8.18938477 14.33486576 6.11215743
Ag 10.24277397 12.27635896 6.15443689
Ag 10.20999859 14.35543569 4.10294244
Ag 8.19867988 12.28320462 8.21824744
Ag 8.13856798 14.35867867 10.25455829
Ag 10.26293686 12.31088875 10.22361295
Ag 10.24287018 14.36880508 8.21414699
Ag 8.20775345 12.24367133 12.31362386
Ag 8.24095850 14.38124659 14.35384304
Ag 10.19458877 12.33094468 14.33760866
Ag 10.16213080 14.35574907 12.24264269
Ag 12.25452576 16.37326671 0.04804116
Ag 12.28602157 2.06255864 2.11455104
Ag 14.40667190 16.39078138 2.04171798
Ag 14.30241585 2.02902667 0.01789122
Ag 12.31628267 0.00684408 4.13529970
Ag 12.27351931 2.05119727 6.17424396
Ag 14.36957098 0.04117876 6.16199445
Ag 14.34037504 2.06588149 4.06353515
Ag 12.24069149 0.02263058 8.19552503
Ag 12.31148057 1.99059453 10.23471075
Ag 14.33052119 16.36399050 10.16411907
Ag 14.33981510 2.08307581 8.21176839
Ag 12.28286375 0.00154434 12.32475443
Ag 12.20218602 2.04677388 14.36566639
Ag 14.37301603 0.06420651 14.38640587
Ag 14.35982210 2.06191119 12.32435763
Ag 12.28031624 4.10043483 0.03462476
Ag 12.37000872 6.14582295 2.04758112
Ag 14.35753804 4.14753557 2.05015607
Ag 14.40282821 6.11895281 16.38802777
Ag 12.29308768 4.12990657 4.13653070
Ag 12.24905936 6.11651025 6.16210887
Ag 14.32780980 4.04556130 6.18481505
Ag 14.36789095 6.16651216 4.08559358
Ag 12.33557192 4.09264566 8.23919374
Ag 12.26654997 6.11987957 10.25396484
Ag 14.32635314 4.12539907 10.25681049
Ag 14.31740208 6.15421954 8.18448674
Ag 12.33314356 4.07900540 12.28142110
Ag 12.34514837 6.22819050 14.41328641
Ag 14.35133433 4.10761001 14.40099984
Ag 14.34629458 6.11379495 12.29974702
Ag 12.32057731 8.17148841 16.33796451
Ag 12.24916309 10.27122461 2.02269157
Ag 14.34345931 8.20982684 2.07193825
Ag 14.33675072 10.26392207 16.35980279
Ag 12.28611101 8.16140856 4.13658396
Ag 12.29838388 10.22229999 6.14148171
Ag 14.34203578 8.22289839 6.09515087
Ag 14.31299963 10.23468964 4.18678176
Ag 12.33733093 8.19456034 8.22304736
Ag 12.37450886 10.24256388 10.23468774
Ag 14.39594284 8.21195374 10.27025087
Ag 14.33402882 10.31691029 8.25465509
Ag 12.32093616 8.22338628 12.22212602
Ag 12.32376842 10.23863932 14.35731398
Ag 14.37516438 8.18920650 14.28209790
Ag 14.36483866 10.22286374 12.28565790
Ag 12.27936509 12.28679048 16.31072971
Ag 12.34423042 14.35295406 2.09058433
Ag 14.41869006 12.29716160 1.98693829
Ag 14.31882067 14.30395146 16.37426294
Ag 12.30154862 12.22482549 4.10919668
Ag 12.24656333 14.35779724 6.14405300
Ag 14.33698200 12.29426527 6.13196260
Ag 14.32816616 14.28588834 4.09930929
Ag 12.36582684 12.36983963 8.24328602
Ag 12.32713724 14.32298159 10.30192811
Ag 14.35091432 12.29771525 10.24137264
Ag 14.35413219 14.33288000 8.19246541
Ag 12.26245056 12.28452462 12.37864062
Ag 12.30043712 14.33959823 14.36086361
Ag 14.37808552 12.25681351 14.33596714
Ag 14.38421859 14.35780345 12.30153915
256
Lattice="16.39280000 0 0 0 16.39280000 0 0 0 16.39280000" Properties=species:S:1:pos:R:3 pbc="T T T" Frame=3
Ag 0.00870381 0.01521154 16.38169502
Ag 16.35942888 2.03913964 2.00169676
Ag 2.06814124 0.06620485 2.02676640
Ag 2.02972052 2.08699045 0.02046649
Ag 0.00747345 16.34539700 4.09359321
Ag 0.04329451 1.99890684 6.12099788
Ag 1.97587313 16.32651499 6.05326266
Ag 2.04559840 1.99535502 4.10348957
Ag 0.01666540 16.38797856 8.07697133
Ag 16.37182430 2.04972144 10.24586954
Ag 1.98360050 16.37292910 10.19610775
Ag 2.01481979 2.10654633 8.15221740
Ag 0.00619664 0.04499273 12.26674594
Ag 0.00521816 2.06883313 14.35906186
Ag 2.00276827 0.00667839 14.41157620
Ag 1.98445775 2.09133956 12.29932267
Ag 16.38193552 4.19683153 0.03884048
Ag 16.35086342 6.16920194 2.07596165
Ag 2.04713643 4.13485549 2.04667107
Ag 2.08902688 6.22262714 16.37109721
Ag 0.01914054 4.07466290 4.10628466
Ag 16.34150047 6.11714675 6.14027456
Ag 2.09785759 4.16753801 6.07419102
Ag 2.02093155 6.19162420 3.99854283
Ag 16.37867391 4.09965408 8.25375153
Ag 0.03912669 6.13609010 10.23440230
Ag 2.04890045 4.17684385 10.22954371
Ag 2.04217394 6.16733348 8.18940109
Ag 16.39036897 4.05791248 12.29780234
Ag 16.38541031 6.19777728 14.37231466
Ag 2.05250402 4.14030243 14.33283142
Ag 2.11241934 6.14945663 12.31857549
Ag 16.33472535 8.22170993 16.31650968
Ag 16.29829982 10.22674710 2.01610239
Ag 2.06728767 8.31747330 2.00892608
Ag 2.02904889 10.26276024 0.02850089
Ag 0.00568061 8.19560390 4.13007962
Ag 0.03764349 10.19639164 6.15765063
Ag 2.05789458 8.14845845 6.15497124
Ag 2.01838110 10.29388183 4.10450316
Ag 0.00115509 8.17211070 8.18161887
Ag 16.30782111 10.19858535 10.26529634
Ag 1.95568992 8.23478278 10.16894079
Ag 2.09163142 10.21563172 8.23721637
Ag 0.02594825 8.12103318 12.35421488
Ag 0.08742966 10.24755140 14.32937556
Ag 2.05222141 8.16013204 14.39222965
Ag 2.03164562 10.23833524 12.26076222
Ag 16.38087422 12.24114753 0.04995788
Ag 0.00853173 14.39284113 2.04995202
Ag 2.02270660 12.28362209 2.02722139
Ag 2.06730853 14.32783331 16.38306486
Ag 16.33425004 12.25329947 4.17747918
Ag 16.36690522 14.28851602 6.16179141
Ag 2.13200263 12.22598424 6.14531608
Ag 2.03170039 14.25357303 4.12809024
Ag 0.01587664 12.29506952 8.16012552
Ag 0.03061834 14.31947756 10.23872879
Ag 2.00206959 12.23277024 10.30857611
Ag 2.03483137 14.35680352 8.19348302
Ag 16.37961895 12.27058272 12.32842726
Ag 16.38462638 14.33873482 14.35191085
Ag 2.11861496 12.33336001 14.37292480
Ag 2.03016971 14.28274016 12.34514894
Ag 4.15172246 0.00422811 0.02383108
Ag 4.13421427 2.09889890 2.08391298
Ag 6.14341722 0.08243240 1.99068383
Ag 6.19500267 2.07473659 0.03236089
Ag 4.19104114 0.06860311 4.04133657
Ag 4.02013044 2.09258956 6.10100361
Ag 6.16016735 0.04642699 6.06653239
Ag 6.06901959 2.07430360 4.10560891
Ag 4.08940007 0.00526876 8.14670770
Ag 4.02165630 2.04328989 10.19252117
Ag 6.07014729 0.03018388 10.23924569
Ag 6.17318854 2.00489218 8.16508985
Ag 4.04766732 16.35932120 12.30738323
Ag 4.07224414 2.06049483 14.36735506
Ag 6.26041368 16.33494621 14.39036517
Ag 6.15713494 2.03541589 12.23606266
Ag 4.07197882 4.13226047 16.39200421
Ag 4.11714944 6.14510679 2.10482111
Ag 6.16307272 4.00205931 2.02184866
Ag 6.06163420 6.00220159 16.37306973
Ag 4.17033960 4.11606667 4.04487200
Ag 4.07030338 6.20765637 6.14984622
Ag 6.15599225 4.10238649 6.15184429
Ag 6.19631583 6.16854415 4.11399324
Ag 4.06313944 4.12837877 8.16153222
Ag 4.16640633 6.09044691 10.24489030
Ag 6.15190262 4.03600360 10.31975742
Ag 6.22342370 6.12363360 8.23029414
Ag 4.12523129 3.97288027 12.30892104
Ag 4.10709155 6.14994421 14.28600273
Ag 6.14371745 4.07949190 14.39302329
Ag 6.16962665 6.15280140 12.36417907
Ag 4.09237828 8.18086002 16.31294751
Ag 4.18724071 10.29333139 2.09100680
Ag 6.19113253 8.20737693 2.05276435
Ag 6.14804602 10.23044864 16.39223686
Ag 4.17664829 8.23055806 4.09720321
Ag 4.08355673 10.21738948 6.23072665
Ag 6.17615451 8.19923140 6.14580460
Ag 6.10704862 10.25044108 4.14024120
Ag 4.09637098 8.18167409 8.18960105
Ag 4.10745129 10.17231420 10.23254673
Ag 6.11570850 8.23696765 10.20465723
Ag 6.17911280 10.32349504 8.17978702
Ag 4.07188272 8.21229233 12.29336881
Ag 4.05667924 10.26943083 14.43910781
Ag 6.14571189 8.19398705 14.29584288
Ag 6.16668178 10.18307279 12.25148954
Ag 4.17023355 12.25965511 0.06247927
Ag 4.17604415 14.35920673 2.08524470
Ag 6.25574404 12.29135997 2.02792437
Ag 6.10281549 14.34888828 0.07273330
Ag 4.15837106 12.25628531 4.05838556
Ag 4.08340905 14.36602392 6.12957843
Ag 6.15958954 12.31876136 6.13024529
Ag 6.15851646 14.36124379 4.09190537
Ag 4.12889252 12.38911111 8.22681251
Ag 4.10106509 14.26875289 10.26540677
Ag 6.06274763 12.22926352 10.29205283
Ag 6.19059938 14.34445940 8.11242237
Ag 4.08780261 12.25335736 12.32922331
Ag 4.21707559 14.36210350 14.31308406
Ag 6.10750084 12.29407938 14.33361163
Ag 6.10607725 14.34876624 12.23921055
Ag 8.26027172 0.05123265 0.05684015
Ag 8.18586170 2.08177335 2.04876510
Ag 10.24129144 16.37863441 1.99191072
Ag 10.18919808 2.09518904 16.39160485
Ag 8.20915722 0.05636239 4.01025704
Ag 8.16569842 2.05798114 6.16777045
Ag 10.22534622 0.05422736 6.16071881
Ag 10.20082963 2.00923716 4.13797498
Ag 8.23056084 16.31045887 8.26580216
Ag 8.23476578 2.10473753 10.22563473
Ag 10.24242094 16.34633238 10.36413558
Ag 10.24707408 2.12936821 8.17295717
Ag 8.20086544 16.32654152 12.27648343
Ag 8.25225052 1.98911922 14.38531206
Ag 10.27225007 16.34616630 14.31833856
Ag 10.22797963 2.04899888 12.26844874
Ag 8.17133929 4.09558973 16.33894301
Ag 8.13389959 6.14158753 2.08885866
Ag 10.18096780 4.10883231 2.01903173
Ag 10.20409332 6.18152626 16.36892781
Ag 8.27151565 4.06077101 4.12041862
Ag 8.19311081 6.11070736 6.17580382
Ag 10.24919873 4.12655924 6.14595361
Ag 10.19976050 6.14836828 4.09467372
Ag 8.24351592 4.05749917 8.19656242
Ag 8.11845510 6.18527792 10.19693811
Ag 10.17240718 4.10744269 10.30569345
Ag 10.18473275 6.09461376 8.16888555
Ag 8.14935040 4.12208042 12.26823041
Ag 8.16946133 6.17793175 14.31308722
Ag 10.27390651 4.07107790 14.27825023
Ag 10.17403341 6.23661303 12.27970793
Ag 8.20559716 8.19932211 0.00455588
Ag 8.21194737 10.33204960 2.00427090
Ag 10.18032647 8.15328696 1.98896153
Ag 10.28932117 10.28526390 16.33779473
Ag 8.14180264 8.18728159 4.16610751
Ag 8.07409744 10.27688054 6.10176618
Ag 10.30116243 8.14897083 6.14362884
Ag 10.17522610 10.19468990 4.16389712
Ag 8.24611379 8.18955851 8.14740190
Ag 8.11842807 10.22947148 10.24206802
Ag 10.25325795 8.19736732 10.18406960
Ag 10.25622319 10.25072389 8.25727496
Ag 8.29179525 8.20080037 12.25222785
Ag 8.20117219 10.21320771 14.30966881
Ag 10.25546244 8.15782738 14.37009009
Ag 10.25722456 10.25863778 12.28214896
Ag 8.16536863 12.25845605 16.36644446
Ag 8.17861450 14.36370979 2.04437203
Ag 10.19391994 12.31256958 1.98311462
Ag 10.22534037 14.33002502 16.30185615
Ag 8.21046374 12.30617532 4.09010579
Ag 8.18978721 14.33485015 6.09822930
Ag 10.24209455 12.26776665 6.16181578
Ag 10.19934270 14.36054007 4.10218037
Ag 8.20084535 12.28201283 8.22768424
Ag 8.10981236 14.35575124 10.25646313
Ag 10.27023754 12.31609903 10.21724495
Ag 10.24223194 14.37598222 8.22290760
Ag 8.20662717 12.22651779 12.31775860
Ag 8.24920783 14.39144462 14.35841682
Ag 10.17381060 12.34255096 14.33223416
Ag 10.13468831 14.35036815 12.22645467
Ag 12.24059288 16.36695833 0.06697123
Ag 12.27923524 2.06887072 2.14057253
Ag 14.42641994 16.38784501 2.03974588
Ag 14.28276724 2.02563755 0.02769569
Ag 12.32535600 0.00927438 4.14932476
Ag 12.26614442 2.05412976 6.18324682
Ag 14.37502566 0.05556873 6.16603256
Ag 14.34138854 2.07329142 4.05226806
Ag 12.21864280 0.02857696 8.19537282
Ag 12.31596828 1.96932505 10.23381077
Ag 14.32916011 16.35258436 10.13296092
Ag 14.34105473 2.09243566 8.21877064
Ag 12.28446241 0.00077134 12.33892353
Ag 12.17023875 2.04419011 14.37619869
Ag 14.37994586 0.08685672 14.40294382
Ag 14.36240850 2.06495115 12.33594531
Ag 12.27249368 4.10264023 0.04877521
Ag 12.39371017 6.14805673 2.04575788
Ag 14.36260697 4.16111275 2.05285629
Ag 14.42178332 6.11621829 16.38836823
Ag 12.29098564 4.14205006 4.14957067
Ag 12.23681136 6.10434918 6.17085160
Ag 14.32416571 4.02568693 6.19660596
Ag 14.37583565 6.17094107 4.08738242
Ag 12.34500335 4.09089134 8.25840340
Ag 12.25301222 6.11085842 10.25742945
Ag 14.32280862 4.13488900 10.26252564
Ag 14.30865957 6.15862693 8.17998512
Ag 12.34492157 4.07233606 12.27958185
Ag 12.36404583 6.25077175 14.43127270
Ag 14.35166290 4.10838520 14.42322146
Ag 14.34787539 6.09986953 12.30189522
Ag 12.33508510 8.16784498 16.32640934
Ag 12.23200113 10.27854073 2.01281052
Ag 14.33988518 8.21943472 2.07966008
Ag 14.33152834 10.26619294 16.34493282
Ag 12.27957289 8.14696405 4.14456529
Ag 12.29574165 10.21459126 6.15001850
Ag 14.34088662 8.22823050 6.08495041
Ag 14.30266193 10.23074503 4.21146484
Ag 12.35547414 8.19301360 8.23281562
Ag 12.40091472 10.24617750 10.23359010
Ag 14.41736178 8.20754031 10.27830061
Ag 14.33427798 10.34083462 8.26707976
Ag 12.32899441 8.23163619 12.19559917
Ag 12.33341577 10.23075870 14.35646885
Ag 14.38625424 8.19078799 14.25730899
Ag 14.37435695 10.21697469 12.28642783
Ag 12.27376573 12.28661765 16.28154664
Ag 12.36058223 14.35174374 2.10648068
Ag 14.43902202 12.29695089 1.96897692
Ag 14.31106888 14.29130384 16.36525737
Ag 12.29899553 12.19901608 4.10955799
Ag 12.22854498 14.36347989 6.14252507
Ag 14.33024884 12.29300176 6.13280900
Ag 14.32250827 14.26493523 4.10192006
Ag 12.38710591 12.39849114 8.25729496
Ag 12.33930015 14.31699457 10.32882807
Ag 14.35869359 12.30412492 10.25001951
Ag 14.35939393 14.33265163 8.18762526
Ag 12.25146027 12.28186453 12.41027144
Ag 12.30559693 14.34121157 14.36187373
Ag 14.39402468 12.24243787 14.33117482
Ag 14.40021505 14.36553263 12.30685579
256
Lattice="16.39280000 0 0 0 16.39280000 0 0 0 16.39280000" Properties=species:S:1:pos:R:3 pbc="T T T" Frame=4
Ag 0.00974808 0.01465739 16.38186322
Ag 16.35559334 2.04591958 1.99404749
Ag 2.07752007 0.07349876 2.02294029
Ag 2.02812050 2.10243919 0.02497238
Ag 0.00144392 16.33252900 4.08828439
Ag 0.05004380 2.00270062 6.11068772
Ag 1.97540172 16.30860964 6.03351808
Ag 2.04362177 1.99117194 4.09459909
Ag 0.02005760 16.38711464 8.06131008
Ag 16.36499039 2.04925884 10.23993617
Ag 1.97338481 16.37002785 10.18512347
Ag 2.00552763 2.11772049 8.13944604
Ag 0.00581811 0.04981684 12.26266020
Ag 0.00769039 2.08214182 14.37230218
Ag 1.99993500 0.00719243 14.42204041
Ag 1.97648976 2.09427510 12.29804008
Ag 0.00038114 4.20829069 0.04556016
Ag 16.35126335 6.18691709 2.07778766
Ag 2.04508831 4.14059143 2.04635719
Ag 2.09326924 6.23453348 16.37854847
Ag 0.02232300 4.06711065 4.10728924
Ag 16.33144389 6.10688155 6.14046571
Ag 2.10169445 4.18827012 6.05265373
Ag 2.01816042 6.20767049 3.97995593
Ag 16.37537199 4.10281414 8.25764892
Ag 0.04104939 6.13543627 10.23821262
Ag 2.05228928 4.18853700 10.23071386
Ag 2.04004983 6.16915724 8.18588408
Ag 16.38766732 4.06193742 12.30051662
Ag 16.38974151 6.19408868 14.37284687
Ag 2.04906295 4.15191024 14.33529281
Ag 2.12457416 6.14796238 12.31585924
Ag 16.32217273 8.23082671 16.30982813
Ag 16.28090015 10.21596283 2.02025324
Ag 2.07189640 8.34306820 2.00282423
Ag 2.02739664 10.26921544 0.03504819
Ag 0.01105766 8.20093467 4.13168302
Ag 0.04666189 10.18664965 6.17141777
Ag 2.05678605 8.14143165 6.15018838
Ag 2.01613030 10.29852815 4.10098824
Ag 16.38201190 8.16854373 8.16916496
Ag 16.30030614 10.19685489 10.26899311
Ag 1.94259961 8.23372797 10.16514809
Ag 2.09439278 10.21840164 8.24403068
Ag 0.04104682 8.10594948 12.35901060
Ag 0.10875907 10.24909382 14.32520399
Ag 2.05457315 8.16225079 14.39274775
Ag 2.02890647 10.22813155 12.25916456
Ag 16.38953178 12.23791951 0.04342663
Ag 0.01709549 14.39723807 2.04818062
Ag 2.01739807 12.28244946 2.02821878
Ag 2.07880604 14.32457361 16.38588088
Ag 16.32527187 12.24029463 4.18700467
Ag 16.36115451 14.27298930 6.16015138
Ag 2.14968398 12.21458045 6.15184065
Ag 2.03201218 14.22972924 4.12581254
Ag 0.02598213 12.28830106 8.15432519
Ag 0.03467141 14.31338549 10.23683952
Ag 1.99293590 12.21769520 10.31480252
Ag 2.03400133 14.35375534 8.18975844
Ag 16.37805986 12.26427425 12.33521138
Ag 16.38137504 14.33677041 14.35929529
Ag 2.13237236 12.34069532 14.38692436
Ag 2.02678194 14.27562574 12.35553770
Ag 4.15690138 0.01163456 0.02345545
Ag 4.12793869 2.11130589 2.07739785
Ag 6.15190121 0.09938790 1.98361408
Ag 6.19922185 2.07607986 0.02445231
Ag 4.19702079 0.07137795 4.03007402
Ag 4.00413389 2.09896019 6.09538166
Ag 6.16619857 0.05435367 6.05261815
Ag 6.07368948 2.08761969 4.11098033
Ag 4.08216156 0.00575341 8.12973251
Ag 3.99831020 2.04101528 10.17752934
Ag 6.05133543 0.03547469 10.23340237
Ag 6.17378736 1.99786859 8.16011945
Ag 4.02893871 16.35973008 12.31062082
Ag 4.07018926 2.05263900 14.37718890
Ag 6.28225851 16.33194765 14.40049971
Ag 6.16365961 2.01565849 12.23782932
Ag 4.05395201 4.13027385 0.00095092
Ag 4.12650542 6.15319119 2.11071266
Ag 6.17287010 3.99648828 2.02243779
Ag 6.05052497 5.99066446 16.37523943
Ag 4.17889676 4.13074957 4.03998477
Ag 4.07549104 6.21773944 6.14351958
Ag 6.15435936 4.10532701 6.15408944
Ag 6.20346658 6.16282892 4.12117292
Ag 4.06356590 4.13449480 8.15294143
Ag 4.18323320 6.08234016 10.24958485
Ag 6.14826221 4.02507853 10.31943305
Ag 6.22920248 6.11494167 8.22864772
Ag 4.12837565 3.95182604 12.31180892
Ag 4.11161212 6.14491602 14.27230853
Ag 6.14278946 4.06231969 14.38922109
Ag 6.16979330 6.15503698 12.36723130
Ag 4.10429896 8.17771741 16.30810232
Ag 4.20418264 10.29683702 2.09266182
Ag 6.20002282 8.21120040 2.04681365
Ag 6.15230866 10.21969072 16.38764151
Ag 4.18448368 8.23827196 4.09760986
Ag 4.08673948 10.21123949 6.24673162
Ag 6.17498014 8.19498188 6.15992712
Ag 6.10642861 10.25492058 4.14501183
Ag 4.10316566 8.17127936 8.19175604
Ag 4.10305953 10.16204290 10.22806257
Ag 6.11230660 8.23598544 10.19314375
Ag 6.17775693 10.33536972 8.17526779
Ag 4.06253808 8.21712409 12.29106553
Ag 4.04831689 10.27088742 14.44984163
Ag 6.14673307 8.19735808 14.29033705
Ag 6.16431895 10.16790267 12.25448905
Ag 4.18217429 12.25980346 0.08056910
Ag 4.18237639 14.36082371 2.09848671
Ag 6.27485294 12.29368508 2.03133752
Ag 6.10810598 14.34911046 0.08276496
Ag 4.17093185 12.25552267 4.05366692
Ag 4.08229090 14.37323158 6.11782078
Ag 6.15397590 12.32890521 6.12386881
Ag 6.16488390 14.36746325 4.08773966
Ag 4.13094059 12.40226213 8.23009201
Ag 4.09167010 14.26143118 10.26973274
Ag 6.05097299 12.21787481 10.30306374
Ag 6.19647166 14.34945448 8.09711332
Ag 4.08444860 12.23537920 12.33682242
Ag 4.23477490 14.36885042 14.31472073
Ag 6.10929931 12.29110615 14.32959378
Ag 6.10444809 14.34567713 12.23059091
Ag 8.27007006 0.05450933 0.06699883
Ag 8.18906469 2.09049253 2.05282640
Ag 10.24632965 16.37490041 1.99037924
Ag 10.18603428 2.10626443 0.00592006
Ag 8.20385141 0.06749572 3.99245234
Ag 8.16038251 2.05625618 6.17066041
Ag 10.21135040 0.06205105 6.16486519
Ag 10.20025329 2.00512989 4.14322160
Ag 8.23773275 16.30535683 8.27887828
Ag 8.23999495 2.09917328 10.22052962
Ag 10.24469264 16.34368882 10.37471664
Ag 10.24925150 2.14069953 8.17605274
Ag 8.18814300 16.32773010 12.27329979
Ag 8.26032351 1.97742792 14.37996678
Ag 10.27676419 16.33894598 14.31216067
Ag 10.22153604 2.04728905 12.26361833
Ag 8.17401665 4.10309990 16.32566038
Ag 8.11657226 6.13353122 2.08996868
Ag 10.17174092 4.11740385 2.01492338
Ag 10.19543607 6.17572406 16.36489222
Ag 8.27579982 4.05223929 4.12624971
Ag 8.19154629 6.10154619 6.17816023
Ag 10.25122297 4.12518775 6.14519730
Ag 10.19055187 6.15071785 4.08743428
Ag 8.24093953 4.05159944 8.19728913
Ag 8.10571646 6.19320901 10.19469606
Ag 10.16692108 4.11795460 10.31988399
Ag 10.17986339 6.08335687 8.17293243
Ag 8.14126933 4.12703592 12.27587790
Ag 8.16483115 6.18154432 14.31364580
Ag 10.27538961 4.08323456 14.26086618
Ag 10.17270951 6.24363260 12.27592110
Ag 8.19594425 8.20056095 0.00009327
Ag 8.21963808 10.33354024 2.00113138
Ag 10.17177148 8.14893089 1.98332577
Ag 10.29327889 10.28710966 16.32009904
Ag 8.13790653 8.18930051 4.17543566
Ag 8.06208226 10.28443084 6.10072615
Ag 10.30574587 8.14179536 6.15245389
Ag 10.15908874 10.18015057 4.17155137
Ag 8.25414315 8.19715194 8.13225231
Ag 8.11255708 10.22646271 10.23768750
Ag 10.25720352 8.19837786 10.16698296
Ag 10.26305160 10.25496762 8.26400126
Ag 8.29973495 8.21039590 12.23975014
Ag 8.20118625 10.20151470 14.30513333
Ag 10.26036717 8.16004512 14.36982633
Ag 10.26645970 10.25780484 12.27526834
Ag 8.15659422 12.25879230 16.34585910
Ag 8.17641979 14.37160844 2.03816080
Ag 10.19145941 12.32626402 1.97030034
Ag 10.22355843 14.32525617 16.29769020
Ag 8.21389354 12.30824732 4.08748937
Ag 8.19402998 14.33906342 6.08846503
Ag 10.24183519 12.26019249 6.17207827
Ag 10.19567144 14.36510543 4.09841921
Ag 8.20386087 12.28522619 8.23511035
Ag 8.08252632 14.34322897 10.25577793
Ag 10.27612385 12.31840374 10.21561133
Ag 10.24242301 14.37735582 8.23150082
Ag 8.19884382 12.21708185 12.31623739
Ag 8.24418032 14.39314263 14.36172657
Ag 10.15828860 12.34706183 14.32471577
Ag 10.12106130 14.33348771 12.22067329
Ag 12.23353354 16.36390501 0.07988665
Ag 12.26998907 2.07473946 2.15933608
Ag 14.43366143 16.38319374 2.03939223
Ag 14.26434584 2.02874540 0.03875926
Ag 12.33244715 0.01077129 4.15876314
Ag 12.26206633 2.05866858 6.18783446
Ag 14.37294492 0.06399729 6.16660302
Ag 14.34502642 2.07933348 4.04726185
Ag 12.20200900 0.02928969 8.19531692
Ag 12.31687011 1.95637383 10.23768280
Ag 14.33298723 16.34438870 10.11181029
Ag 14.34495696 2.09385278 8.22504673
Ag 12.29305530 16.39169103 12.35145508
Ag 12.15302737 2.04023651 14.38604402
Ag 14.37948130 0.09973653 14.41430189
Ag 14.36011605 2.06496296 12.34422252
Ag 12.26437331 4.10598816 0.05937642
Ag 12.40345396 6.15326499 2.04307502
Ag 14.36607283 4.16385272 2.05749635
Ag 14.42911280 6.12504286 16.39145167
Ag 12.28803909 4.15039318 4.15609625
Ag 12.23499353 6.09586235 6.18088811
Ag 14.32450584 4.01278026 6.20144081
Ag 14.37947887 6.17062331 4.09630766
Ag 12.34381417 4.08991609 8.27466491
Ag 12.24061749 6.10655654 10.26027141
Ag 14.32447677 4.14000927 10.26787733
Ag 14.30456233 6.16271477 8.17727693
Ag 12.34928165 4.06769128 12.28216335
Ag 12.37659698 6.25466773 14.43219223
Ag 14.34867644 4.10537134 14.43871609
Ag 14.34962253 6.08946949 12.30404481
Ag 12.35006248 8.17371435 16.33138075
Ag 12.22016576 10.28062754 2.00587326
Ag 14.33276468 8.23085454 2.08421773
Ag 14.32523157 10.26247547 16.33246438
Ag 12.27148524 8.13593594 4.14241365
Ag 12.28869233 10.21035418 6.16854437
Ag 14.33938516 8.22513135 6.09002670
Ag 14.29758599 10.22821473 4.21709905
Ag 12.36998419 8.19150152 8.23935520
Ag 12.41389465 10.25461050 10.23652628
Ag 14.43292565 8.19144575 10.28213361
Ag 14.33941852 10.35302062 8.26339559
Ag 12.33211407 8.23421507 12.17898788
Ag 12.33817014 10.21861668 14.34799348
Ag 14.39235614 8.19697877 14.23912515
Ag 14.38245551 10.21620333 12.29200665
Ag 12.27043016 12.28955283 16.26387131
Ag 12.36859129 14.34548981 2.11724937
Ag 14.44185340 12.29614536 1.96436664
Ag 14.30800201 14.28584456 16.35710403
Ag 12.29032387 12.18252675 4.10583969
Ag 12.21635332 14.36751707 6.14113456
Ag 14.31991958 12.29051931 6.14184287
Ag 14.31920602 14.25184359 4.10654408
Ag 12.39380719 12.41774687 8.26282208
Ag 12.34713233 14.31537597 10.35403981
Ag 14.37043119 12.31507188 10.26816582
Ag 14.36531999 14.33723998 8.18009275
Ag 12.24598780 12.28160295 12.43100337
Ag 12.31269477 14.34646513 14.35604181
Ag 14.40776913 12.23291561 14.32600781
Ag 14.41210292 14.37382003 12.31389601
256
Lattice="16.39280000 0 0 0 16.39280000 0 0 0 16.39280000" Properties=species:S:1:pos:R:3 pbc="T T T" Frame=5
Ag 0.00973120 0.01139098 16.38512116
Ag 16.35654608 2.05764228 1.99169647
Ag 2.08736900 0.07127375 2.02085861
Ag 2.02890849 2.11741990 0.02747263
Ag 16.38374666 16.32273780 4.08153482
Ag 0.05184641 2.01752533 6.09960813
Ag 1.98846373 16.29474708 6.02151075
Ag 2.04108326 1.99548866 4.07956913
Ag 0.02287314 16.38666884 8.06036424
Ag 16.35918787 2.04885795 10.23152704
Ag 1.97056649 16.36981909 10.17778156
Ag 1.99783834 2.12395865 8.12830906
Ag 0.00404912 0.04848385 12.26279143
Ag 0.01017877 2.09827499 14.38942868
Ag 2.00446960 0.00695339 14.42452640
Ag 1.97663069 2.09062054 12.29561679
Ag 0.01918283 4.20691864 0.04855002
Ag 16.35910608 6.20973303 2.07512434
Ag 2.04240246 4.14323994 2.04761130
Ag 2.09188912 6.23847694 0.00168634
Ag 0.02336595 4.06170402 4.10600544
Ag 16.32682381 6.09747382 6.14192712
Ag 2.09841476 4.20663858 6.03409171
Ag 2.02001262 6.22383213 3.97155009
Ag 16.37302131 4.10803684 8.25226763
Ag 0.03620840 6.13626845 10.24574058
Ag 2.05758545 4.19014957 10.23531015
Ag 2.03825048 6.16800124 8.18183799
Ag 16.38409555 4.07555444 12.30399599
Ag 0.00485130 6.17855733 14.36888014
Ag 2.04380113 4.16079755 14.34065668
Ag 2.13041412 6.14481451 12.30639719
Ag 16.31548562 8.23991759 16.31436840
Ag 16.27399837 10.20479780 2.03216762
Ag 2.07600837 8.35724069 2.00213444
Ag 2.02943553 10.27596463 0.03872645
Ag 0.01684575 8.20951343 4.12859209
Ag 0.05271233 10.18221243 6.18903242
Ag 2.05356129 8.14062533 6.14184438
Ag 2.01953721 10.29636837 4.09489813
Ag 16.36453184 8.16742058 8.15423851
Ag 16.30622996 10.20336838 10.27024607
Ag 1.94112650 8.22423794 10.17375218
Ag 2.09013227 10.22721644 8.24597713
Ag 0.05888596 8.09843384 12.35359430
Ag 0.12362613 10.25082758 14.32210853
Ag 2.05819510 8.17186624 14.38480941
Ag 2.02830852 10.21395084 12.26335424
Ag 0.01129052 12.24320880 0.02431745
Ag 0.02836574 14.39276035 2.04447319
Ag 2.01472473 12.28203738 2.03418591
Ag 2.09325634 14.32360231 0.00010537
Ag 16.32323782 12.22776166 4.18608226
Ag 16.35829150 14.26070255 6.15414318
Ag 2.15997921 12.21130323 6.16160849
Ag 2.03500053 14.21020602 4.11656685
Ag 0.03793130 12.27818812 8.15339011
Ag 0.03522657 14.30872055 10.23533584
Ag 1.98871749 12.20774374 10.31202494
Ag 2.03543344 14.34631604 8.18396850
Ag 16.38023736 12.26017916 12.33881609
Ag 16.37893137 14.33514715 14.36927529
Ag 2.13974241 12.34420109 14.40248751
Ag 2.02526992 14.27650592 12.36127977
Ag 4.15454018 0.02132441 0.01865585
Ag 4.11257913 2.12038830 2.06149777
Ag 6.16435155 0.10908601 1.98477662
Ag 6.19699995 2.07380232 0.00608725
Ag 4.18842793 0.06361918 4.02391869
Ag 3.99578493 2.10012105 6.09496611
Ag 6.17231583 0.05669585 6.04756905
Ag 6.09478081 2.10293596 4.11702982
Ag 4.07251689 0.00556995 8.11309647
Ag 3.97808402 2.03882506 10.16507005
Ag 6.03678675 0.03658645 10.22521249
Ag 6.16875839 1.99581780 8.15877096
Ag 4.01041919 16.36686138 12.31254969
Ag 4.07136191 2.03852814 14.38727923
Ag 6.29146651 16.33910250 14.40731420
Ag 6.17092535 1.98873073 12.25161895
Ag 4.03280716 4.12125026 0.00339664
Ag 4.13735651 6.16650928 2.10792068
Ag 6.18366290 4.00751621 2.02772888
Ag 6.05050793 6.00110745 16.38130969
Ag 4.17724506 4.14909765 4.04312845
Ag 4.08909182 6.22077479 6.13305520
Ag 6.14981082 4.10825053 6.15682783
Ag 6.20437861 6.15109820 4.12934265
Ag 4.07033727 4.13801007 8.14633955
Ag 4.19528123 6.08100673 10.25686734
Ag 6.14222243 4.01923397 10.30468189
Ag 6.22210752 6.10640375 8.21846262
Ag 4.12792318 3.94384696 12.31317682
Ag 4.11697887 6.13671988 14.26449093
Ag 6.14139977 4.04051948 14.37364907
Ag 6.16575396 6.15736019 12.35721773
Ag 4.12351164 8.17566118 16.31643552
Ag 4.21240470 10.29232374 2.08645157
Ag 6.20490341 8.21483709 2.03863159
Ag 6.15874178 10.20771189 16.38065165
Ag 4.18131648 8.24319477 4.09839841
Ag 4.09495542 10.20675553 6.25380543
Ag 6.16781238 8.18816821 6.18105584
Ag 6.11441595 10.25998321 4.14425228
Ag 4.11226983 8.15796210 8.19675482
Ag 4.09439086 10.16106115 10.22386794
Ag 6.11388487 8.22668670 10.18351553
Ag 6.16910202 10.33838613 8.17242241
Ag 4.05424711 8.22089664 12.28781243
Ag 4.04430047 10.26842777 14.44773343
Ag 6.14786567 8.20223407 14.29130578
Ag 6.15656357 10.15719126 12.26685458
Ag 4.18692993 12.26710454 0.09544455
Ag 4.17693859 14.36065066 2.11043144
Ag 6.28198839 12.29756434 2.04039613
Ag 6.12425465 14.34913247 0.08355613
Ag 4.17738025 12.26238774 4.05465728
Ag 4.08422448 14.37933796 6.10297935
Ag 6.14330534 12.33997530 6.11765051
Ag 6.17313284 14.37377568 4.08256458
Ag 4.12844375 12.40322607 8.22831988
Ag 4.07604719 14.26554550 10.27363209
Ag 6.04928621 12.21278156 10.31053247
Ag 6.19600692 14.35771066 8.08997608
Ag 4.08094549 12.21657420 12.34151708
Ag 4.23838349 14.37539481 14.32346116
Ag 6.11910393 12.28590086 14.32551237
Ag 6.10828111 14.34056474 12.22950867
Ag 8.27272161 0.04991525 0.07018190
Ag 8.19702559 2.09766547 2.05769148
Ag 10.25488690 16.37215347 2.00133839
Ag 10.19214476 2.11417101 0.01680445
Ag 8.19352315 0.07266214 3.98340389
Ag 8.15928807 2.05241671 6.17110112
Ag 10.19405622 0.06284320 6.16850561
Ag 10.20855691 2.00706633 4.14343684
Ag 8.24144537 16.31448221 8.28530421
Ag 8.23984038 2.08025579 10.21727752
Ag 10.24862913 16.34746441 10.36799296
Ag 10.25242632 2.14200218 8.18585041
Ag 8.16910928 16.34074326 12.27102415
Ag 8.26289998 1.97233746 14.36426574
Ag 10.27709530 16.33613251 14.30777690
Ag 10.21573044 2.04474708 12.26193078
Ag 8.18263060 4.11418094 16.31567088
Ag 8.10337409 6.12287598 2.08324622
Ag 10.17036772 4.12902550 2.01546877
Ag 10.19117877 6.16160018 16.36291561
Ag 8.26744229 4.04723253 4.13106647
Ag 8.19059480 6.09509804 6.17593704
Ag 10.25287012 4.11729045 6.14441856
Ag 10.18523210 6.15396559 4.07776931
Ag 8.22721931 4.05085707 8.19878877
Ag 8.10312128 6.19760173 10.20189106
Ag 10.17184788 4.13164125 10.32963466
Ag 10.18407991 6.07681039 8.18487750
Ag 8.13784271 4.12912211 12.29182011
Ag 8.16305730 6.18195219 14.32000745
Ag 10.27177637 4.10681258 14.24768335
Ag 10.18463835 6.23714577 12.27310064
Ag 8.18060497 8.20103972 16.38485762
Ag 8.22928586 10.31882944 2.00398946
Ag 10.17109191 8.15041269 1.98585344
Ag 10.28983503 10.28228721 16.30433184
Ag 8.14186164 8.19316094 4.17652913
Ag 8.06837811 10.29043953 6.10885650
Ag 10.30215896 8.13929858 6.16679900
Ag 10.14944411 10.16848538 4.17067222
Ag 8.25611517 8.20962883 8.11943942
Ag 8.11928034 10.22536045 10.23114272
Ag 10.26147121 8.19928010 10.15348005
Ag 10.27160110 10.26086677 8.26258422
Ag 8.29254610 8.22394299 12.22930594
Ag 8.20077260 10.19029719 14.30425574
Ag 10.26616238 8.16993153 14.36432778
Ag 10.27768332 10.25417276 12.26685093
Ag 8.14974190 12.26544034 16.32082177
Ag 8.17747706 14.37963341 2.02994103
Ag 10.19726471 12.34300941 1.96298461
Ag 10.22525713 14.32132308 16.30887834
Ag 8.21734749 12.30922736 4.08545309
Ag 8.20212541 14.34737157 6.08376846
Ag 10.24181278 12.25443592 6.18427507
Ag 10.19932848 14.36908599 4.09175392
Ag 8.20712778 12.29265627 8.23965702
Ag 8.05909654 14.32236163 10.25268438
Ag 10.28030654 12.31734782 10.21915810
Ag 10.24317881 14.37248155 8.23979213
Ag 8.18442007 12.21493314 12.30868198
Ag 8.22658990 14.38609235 14.36301259
Ag 10.14925513 12.34372316 14.31543448
Ag 10.12062422 14.30742816 12.22549257
Ag 12.23431447 16.36407122 0.08556632
Ag 12.25864265 2.08000165 2.16965389
Ag 14.42719536 16.37711312 2.04061433
Ag 14.24801757 2.03823677 0.05123588
Ag 12.33696650 0.01129956 4.16293256
Ag 12.26158814 2.06437224 6.18792996
Ag 14.36350581 0.06620922 6.16366636
Ag 14.35099529 2.08325538 4.04896863
Ag 12.19210203 0.02466681 8.19527963
Ag 12.31451099 1.95269508 10.24662272
Ag 14.34192987 16.34001360 10.10249419
Ag 14.35065169 2.08709867 8.22995868
Ag 12.30814551 16.38927968 12.36105419
Ag 12.15147715 2.03572642 14.39469492
Ag 14.37189726 0.10228644 14.42014293
Ag 14.35360015 2.06210757 12.34885977
Ag 12.25650587 4.11073188 0.06563636
Ag 12.39844509 6.16104068 2.03991371
Ag 14.36799602 4.15658090 2.06354790
Ag 14.42441440 6.14452624 0.00426345
Ag 12.28454096 4.15468281 4.15528740
Ag 12.24369467 6.09180950 6.19178751
Ag 14.32843152 4.00789625 6.19922926
Ag 14.37847517 6.16575000 4.11119968
Ag 12.33250220 4.08937340 8.28698205
Ag 12.23094335 6.10730180 10.26250690
Ag 14.33110886 4.14017373 10.27227960
Ag 14.30550754 6.16470392 8.17707498
Ag 12.34589205 4.06489708 12.28905612
Ag 12.38181565 6.24043964 14.41662879
Ag 14.34244292 4.09878946 14.44710174
Ag 14.35130583 6.08368090 12.30659186
Ag 12.36368581 8.18769707 16.35169136
Ag 12.21375993 10.27749613 2.00188450
Ag 14.32189035 8.24267796 2.08610374
Ag 14.31891943 10.25420304 16.32351870
Ag 12.26248531 8.12944225 4.13125977
Ag 12.27807824 10.20950635 6.19496077
Ag 14.33711179 8.21419169 6.10904819
Ag 14.29730393 10.22660641 4.20480903
Ag 12.37990545 8.19061957 8.24299259
Ag 12.41391585 10.26777311 10.24285669
Ag 14.44125830 8.16531339 10.28197220
Ag 14.34881906 10.35299040 8.24527703
Ag 12.33035742 8.23046932 12.17313079
Ag 12.33757069 10.20294830 14.33205963
Ag 14.39343058 8.20647292 14.22883400
Ag 14.38873599 10.22010672 12.30115355
Ag 12.26973707 12.29486199 16.25787438
Ag 12.36762954 14.33460687 2.12192009
Ag 14.42741462 12.29472659 1.97248825
Ag 14.30993192 14.28783343 16.35081618
Ag 12.27531636 12.17605559 4.09909236
Ag 12.21037355 14.36956461 6.13986649
Ag 14.30612799 12.28653788 6.15785775
Ag 14.31852249 14.24702599 4.11329312
Ag 12.38577170 12.42647008 8.26097932
Ag 12.35019930 14.31826508 10.37624500
Ag 14.38491125 12.32946734 10.29348331
Ag 14.37174902 14.34587956 8.17017574
Ag 12.24714570 12.28376913 12.43935708
Ag 12.32112391 14.35513370 14.34415680
Ag 14.41778349 12.22893744 14.32132417
Ag 14.41969729 14.38246714 12.32275404
256
Lattice="16.39280000 0 0 0 16.39280000 0 0 0 16.39280000" Properties=species:S:1:pos:R:3 pbc="T T T" Frame=6
Ag 0.00884163 0.00658512 16.39151440
Ag 16.36183576 2.07172910 1.99438724
Ag 2.09598520 0.05993797 2.02014724
Ag 2.03105985 2.12893913 0.02771949
Ag 16.37078508 16.31696932 4.07473679
Ag 0.04920516 2.03970853 6.08878015
Ag 2.01122134 16.28669439 6.01659639
Ag 2.03823597 2.00734194 4.06004282
Ag 0.02567100 16.38686838 8.07129886
Ag 16.35560216 2.04895737 10.22244162
Ag 1.97456794 16.37200936 10.17418985
Ag 1.99189900 2.12557181 8.11891731
Ag 0.00132914 0.04200397 12.26751584
Ag 0.01193959 2.11511889 14.40859085
Ag 2.01468142 0.00613856 14.41970870
Ag 1.98310167 2.08163592 12.29289858
Ag 0.04105224 4.19572917 0.04837146
Ag 16.37191926 6.23545133 2.06830108
Ag 2.03941909 4.14427523 2.05187511
Ag 2.08580581 6.23661403 0.02373188
Ag 0.02218923 4.06056514 4.10135745
Ag 16.32829064 6.09016467 6.14399537
Ag 2.08941386 4.22140712 6.01995696
Ag 2.02673437 6.23909330 3.97320512
Ag 16.37196895 4.11514502 8.23872198
Ag 0.02618321 6.13729078 10.25520019
Ag 2.06376656 4.18196775 10.24201125
Ag 2.03695228 6.16431328 8.17761813
Ag 16.38057449 4.09567625 12.30806938
Ag 0.01480217 6.15483284 14.36196552
Ag 2.03819375 4.16592239 14.34747495
Ag 2.13025499 6.13990387 12.29146746
Ag 16.31597717 8.24799459 16.32809344
Ag 16.27778671 10.19671858 2.04895362
Ag 2.07986466 8.35892424 2.00654495
Ag 2.03560997 10.28228147 0.03941048
Ag 0.02097352 8.22059515 4.12251074
Ag 0.05516040 10.18386171 6.20683686
Ag 2.04944890 8.14558746 6.13158918
Ag 2.02886419 10.28858912 4.08802693
Ag 16.34511990 8.16805878 8.14032031
Ag 16.32303638 10.21544722 10.26863030
Ag 1.95070247 8.20756903 10.19111593
Ag 2.08011350 10.23849786 8.24344539
Ag 0.07673568 8.09868662 12.33954609
Ag 0.13065941 10.25230933 14.32076733
Ag 2.06367143 8.18573243 14.37180587
Ag 2.02996466 10.19799219 12.27214513
Ag 0.02785301 12.25544225 16.39048483
Ag 0.04050913 14.37932418 2.03869206
Ag 2.01481255 12.28120703 2.04399237
Ag 2.10992764 14.32572337 0.01109891
Ag 16.32747234 12.21601816 4.17608379
Ag 16.35922474 14.25253751 6.14416608
Ag 2.16240302 12.21589129 6.17246018
Ag 2.03954767 14.19640859 4.10194598
Ag 0.04999399 12.26655363 8.15764311
Ag 0.03335196 14.30605014 10.23419870
Ag 1.99009515 12.20402453 10.30181576
Ag 2.03863679 14.33524345 8.17628829
Ag 16.38791119 12.25927343 12.33953440
Ag 16.37852107 14.33449887 14.38094432
Ag 2.14097440 12.34411696 14.41775866
Ag 2.02543408 14.28430471 12.36246478
Ag 4.14627701 0.03128925 0.01133022
Ag 4.09275607 2.12601428 2.04002757
Ag 6.17745582 0.11191959 1.99316057
Ag 6.19008948 2.06965665 16.37402991
Ag 4.16853870 0.04929614 4.02294932
Ag 3.99546471 2.09656876 6.09802517
Ag 6.17731591 0.05351926 6.05113108
Ag 6.12606002 2.11813381 4.12207384
Ag 4.06092362 0.00478386 8.09769270
Ag 3.96279149 2.03688150 10.15587540
Ag 6.02625852 0.03288167 10.21510799
Ag 6.15797533 1.99856294 8.16054055
Ag 3.99394854 16.37954533 12.31281046
Ag 4.07488369 2.02011774 14.39582194
Ag 6.28628187 16.35519722 14.41068950
Ag 6.17662172 1.95901176 12.27444225
Ag 4.01360477 4.10891323 0.00566564
Ag 4.14868197 6.18387686 2.09706235
Ag 6.19291967 4.03179020 2.03557728
Ag 6.06013413 6.02889504 16.38832411
Ag 4.16598212 4.16811343 4.05267451
Ag 4.10866145 6.21689581 6.11957380
Ag 6.14271348 4.10999182 6.15994343
Ag 6.20001155 6.13639517 4.13746481
Ag 4.08150261 4.13886802 8.14190556
Ag 4.20114638 6.08594225 10.26573707
Ag 6.13525068 4.01629521 10.27920374
Ag 6.20429982 6.09897423 8.20186782
Ag 4.12469473 3.94756292 12.31278851
Ag 4.12269277 6.12638482 14.26391432
Ag 6.13929899 4.01771494 14.34960437
Ag 6.15864355 6.15986444 12.33601379
Ag 4.14680333 8.17459708 16.33595520
Ag 4.21210079 10.28103728 2.07365479
Ag 6.20572922 8.21764556 2.03063581
Ag 6.16657436 10.19770235 16.37199445
Ag 4.16901085 8.24562028 4.09945212
Ag 4.10686294 10.20381693 6.25129739
Ag 6.15697557 8.18029611 6.20530869
Ag 6.13041011 10.26441448 4.13884209
Ag 4.12086118 8.14297289 8.20416309
Ag 4.08290162 10.16853514 10.22020137
Ag 6.12040070 8.21168426 10.17674324
Ag 6.15479803 10.33337318 8.17218236
Ag 4.04841856 8.22263411 12.28375397
Ag 4.04536030 10.26237137 14.43462960
Ag 6.14823836 8.20649129 14.29782092
Ag 6.14408037 10.15175708 12.28539517
Ag 4.18570654 12.28039760 0.10555238
Ag 4.16185843 14.35920232 2.11854534
Ag 6.27818242 12.30166285 2.05312379
Ag 6.14790491 14.34988710 0.07602225
Ag 4.17729479 12.27480197 4.06053820
Ag 4.08963643 14.38334735 6.08600006
Ag 6.12985133 12.35091562 6.11241433
Ag 6.18309230 14.38007901 4.07650740
Ag 4.12258044 12.39296076 8.22247247
Ag 4.05569457 14.27966707 10.27726528
Ag 6.05605931 12.21343128 10.31365722
Ag 6.18877768 14.36890726 8.09075457
Ag 4.07718622 12.19913244 12.34304369
Ag 4.22913887 14.38090947 14.33805042
Ag 6.13401728 12.27870051 14.32151123
Ag 6.11464355 14.33455149 12.23684461
Ag 8.26987237 0.03954590 0.06607455
Ag 8.20914080 2.10332211 2.06129171
Ag 10.26600095 16.37088719 2.02364275
Ag 10.20564148 2.11810153 0.02955563
Ag 8.18054544 0.07187165 3.98411327
Ag 8.16287394 2.04750909 6.16981221
Ag 10.17563992 0.05699173 6.17102850
Ag 10.22387173 2.01449833 4.13934461
Ag 8.24126144 16.33559624 8.28531562
Ag 8.23432300 2.05191957 10.21671733
Ag 10.25325507 16.35454854 10.34798359
Ag 10.25566660 2.13393177 8.20166234
Ag 8.14847885 16.36030431 12.26805901
Ag 8.26175909 1.97485894 14.34157158
Ag 10.27232526 16.33641993 14.30549248
Ag 10.21161826 2.04176440 12.26366110
Ag 8.19488027 4.12625863 16.30895662
Ag 8.09587032 6.11175824 2.06957307
Ag 10.17642475 4.14302728 2.02156743
Ag 10.19221017 6.14342109 16.36259439
Ag 8.24859370 4.04657479 4.13481272
Ag 8.19137266 6.09199963 6.17001658
Ag 10.25350967 4.10449357 6.14415846
Ag 10.18363721 6.15748268 4.06742605
Ag 8.20483478 4.05453203 8.20162125
Ag 8.11020894 6.19798385 10.21643036
Ag 10.18414021 4.14528552 10.33457558
Ag 10.19555565 6.07508747 8.20273394
Ag 8.13826555 4.12746216 12.31238618
Ag 8.16350726 6.18047593 14.32983215
Ag 10.26426184 4.13799635 14.24010192
Ag 10.20643221 6.22097971 12.27210219
Ag 8.16299701 8.19921541 16.37430595
Ag 8.24025229 10.29191093 2.01085586
Ag 10.17707275 8.15645738 1.99438968
Ag 10.27955451 10.27219637 16.29219422
Ag 8.15098115 8.19725616 4.17050551
Ag 8.09080639 10.29499818 6.12542234
Ag 10.29210867 8.14056331 6.18478991
Ag 10.14796463 10.16096492 4.16232383
Ag 8.25173911 8.22484837 8.11096659
Ag 8.13675924 10.22644272 10.22273917
Ag 10.26529781 8.20002825 10.14484741
Ag 10.28100162 10.26816373 8.25420450
Ag 8.27319132 8.23799049 12.22180056
Ag 8.20047829 10.18101845 14.30576454
Ag 10.27281429 8.18422273 14.35442919
Ag 10.28900136 10.24850099 12.25724030
Ag 8.14555067 12.27585078 16.29619058
Ag 8.18234950 14.38670441 2.02099929
Ag 10.20929614 12.35971662 1.96095047
Ag 10.23015233 14.31919169 16.33154913
Ag 8.22161671 12.30930172 4.08446739
Ag 8.21327482 14.35868440 6.08457969
Ag 10.24183944 12.25153476 6.19664781
Ag 10.20956614 14.37224881 4.08307219
Ag 8.20945427 12.30305618 8.24046223
Ag 8.04257967 14.29684982 10.24783405
Ag 10.28242073 12.31269197 10.22761113
Ag 10.24362607 14.36225067 8.24758446
Ag 8.16481739 12.21828376 12.29587886
Ag 8.19976029 14.37170443 14.36163411
Ag 10.14744083 12.33297429 14.30541023
Ag 10.13045871 14.27840225 12.23889726
Ag 12.24240111 16.36691575 0.08390571
Ag 12.24654841 2.08444623 2.17109133
Ag 14.40804672 16.37023511 2.04314009
Ag 14.23509175 2.05263769 0.06471756
Ag 12.33835327 0.01092908 4.16151008
Ag 12.26451195 2.07032300 6.18425666
Ag 14.34867644 0.06268178 6.15804084
Ag 14.35813385 2.08418531 4.05672742
Ag 12.18993611 0.01546724 8.19527623
Ag 12.30991963 1.95812032 10.25989792
Ag 14.35480007 16.33966566 10.10600293
Ag 14.35643703 2.07366884 8.23235625
Ag 12.32761377 16.38737026 12.36624618
Ag 12.16394621 2.03227730 14.40149722
Ag 14.35907004 0.09576378 14.42132703
Ag 14.34460736 2.05708600 12.34990729
Ag 12.24972866 4.11708018 0.06707804
Ag 12.37996305 6.16993809 2.03698059
Ag 14.36838731 4.14269224 2.06987417
Ag 14.40995010 6.17071550 0.01134585
Ag 12.28081809 4.15530686 4.14739831
Ag 12.26088777 6.09232664 6.20244946
Ag 14.33468903 4.01110147 6.19118699
Ag 14.37314385 6.15731579 4.12927092
Ag 12.31377384 4.08868501 8.29466820
Ag 12.22633332 6.11273025 10.26410601
Ag 14.34103237 4.13535813 10.27512791
Ag 14.31103621 6.16238292 8.18011106
Ag 12.33573466 4.06387216 12.29929573
Ag 12.37920927 6.21314507 14.38900223
Ag 14.33365571 4.08972254 14.44911653
Ag 14.35250805 6.08315971 12.30984952
Ag 12.37314229 8.20523650 16.38151874
Ag 12.21207858 10.27016636 2.00072381
Ag 14.30801528 8.25290799 2.08639031
Ag 14.31414761 10.24442766 16.31890187
Ag 12.25339620 8.12851020 4.11435192
Ag 12.26607467 10.21157055 6.22455504
Ag 14.33342019 8.19842667 6.13697642
Ag 14.29974970 10.22502458 4.17978454
Ag 12.38450007 8.19079121 8.24474170
Ag 12.40414144 10.28458812 10.25094836
Ag 14.44189099 8.13422561 10.27890260
Ag 14.36056031 10.34182053 8.21842999
Ag 12.32473489 8.22074497 12.17738599
Ag 12.33177539 10.18591147 14.31069110
Ag 14.39075689 8.21640695 14.22701576
Ag 14.39315157 10.22721433 12.31098564
Ag 12.27170411 12.30108506 16.26200789
Ag 12.35829270 14.32039466 2.12004548
Ag 14.39955428 12.29207295 1.98976624
Ag 14.31642450 14.29636524 16.34768472
Ag 12.25496233 12.17890708 4.09122517
Ag 12.21028262 14.36950363 6.13868476
Ag 14.29017721 12.28109884 6.17721147
Ag 14.32010850 14.24973322 4.12182640
Ag 12.36579197 12.42488218 8.25453687
Ag 12.34873979 14.32507908 10.39346539
Ag 14.39939400 12.34487996 10.32117083
Ag 14.37756458 14.35649205 8.15895396
Ag 12.25554546 12.28786152 12.43514979
Ag 12.32960392 14.36588372 14.32860475
Ag 14.42251438 12.23060143 14.31825002
Ag 14.42338197 14.39097718 12.33329933
256
Lattice="16.39280000 0 0 0 16.39280000 0 0 0 16.39280000" Properties=species:S:1:pos:R:3 pbc="T T T" Frame=7
Ag 0.00734506 0.00174974 0.00776901
Ag 16.37037338 2.08468662 2.00135358
Ag 2.10135452 0.04100259 2.02057634
Ag 2.03325945 2.13351472 0.02572950
Ag 16.35807374 16.31580496 4.06914042
Ag 0.04320515 2.06438252 6.07963375
Ag 2.03798220 16.28599956 6.01730509
Ag 2.03559502 2.02477986 4.03871985
Ag 0.02889591 16.38782374 8.08958329
Ag 16.35556730 2.05000395 10.21480664
Ag 1.98390753 16.37587242 10.17421649
Ag 1.98781148 2.12325630 8.11113310
Ag 16.39122598 0.03218764 12.27670779
Ag 0.01201971 2.12984017 14.42721093
Ag 2.02766761 0.00485874 14.40933342
Ag 1.99307372 2.06941644 12.29094600
Ag 0.06026812 4.17918316 0.04615344
Ag 16.38653878 6.26114364 2.05841984
Ag 2.03667464 4.14563887 2.06022403
Ag 2.07672950 6.23183638 0.04822941
Ag 0.01880794 4.06589924 4.09255696
Ag 16.33587740 6.08662871 6.14563686
Ag 2.07683681 4.23102837 6.01184383
Ag 2.03788593 6.25217047 3.98364741
Ag 16.37262503 4.12325612 8.21921735
Ag 0.01376719 6.13667893 10.26412000
Ag 2.06925768 4.16542687 10.24887079
Ag 2.03639417 6.15881756 8.17373057
Ag 16.37827390 4.11767036 12.31242663
Ag 0.02467402 6.12856485 14.35405279
Ag 2.03433510 4.16636718 14.35382046
Ag 2.12524338 6.13330873 12.27372956
Ag 16.32438743 8.25409523 16.34780825
Ag 16.29123040 10.19500581 2.06669758
Ag 2.08357545 8.34846104 2.01469530
Ag 2.04601231 10.28695713 0.03768285
Ag 0.02138225 8.23277973 4.11579356
Ag 0.05363970 10.19186287 6.22018950
Ag 2.04602176 8.15512237 6.12172973
Ag 2.04385351 10.27716133 4.08268138
Ag 16.32846130 8.16941321 8.13151620
Ag 16.34645134 10.22914799 10.26415308
Ag 1.96997714 8.18592092 10.21201679
Ag 2.06679957 10.24761719 8.23729911
Ag 0.09085996 8.10597256 12.32030736
Ag 0.12888457 10.25302885 14.32176032
Ag 2.07125732 8.19939923 14.35819188
Ag 2.03379258 10.18359151 12.28343638
Ag 0.04230159 12.27220739 16.36284701
Ag 0.05084263 14.35816332 2.03124131
Ag 2.01763110 12.27833644 2.05549138
Ag 2.12741357 14.33136257 0.02504462
Ag 16.33650177 12.20567433 4.15948145
Ag 16.36452756 14.24881799 6.13132955
Ag 2.15717915 12.22698494 6.18146383
Ag 2.04418291 14.19024180 4.08469148
Ag 0.05965585 12.25609646 8.16674705
Ag 0.03067667 14.30614232 10.23332178
Ag 1.99752442 12.20729958 10.28690936
Ag 2.04287636 14.32201715 8.16730572
Ag 0.00948945 12.26223116 12.33838529
Ag 16.38142908 14.33567011 14.39275031
Ag 2.13722335 12.34114832 14.43019540
Ag 2.02688910 14.29716281 12.35980949
Ag 4.13453811 0.03916845 0.00424794
Ag 4.07405509 2.12811189 2.01778612
Ag 6.18742675 0.10916593 2.00645929
Ag 6.18097301 2.06569139 16.34840701
Ag 4.14202114 0.03308865 4.02680430
Ag 4.00265721 2.08946447 6.10219975
Ag 6.17995292 0.04584199 6.06214267
Ag 6.15958532 2.13067717 4.12451876
Ag 4.04816138 0.00342573 8.08473465
Ag 3.95434081 2.03523948 10.15048860
Ag 6.01932053 0.02431397 10.20410193
Ag 6.14196367 2.00530614 8.16428060
Ag 3.98185262 0.00294565 12.31117090
Ag 4.07951662 2.00056249 14.40050554
Ag 6.26664538 16.37721265 14.41048175
Ag 6.17742242 1.93206913 12.30163841
Ag 4.00194291 4.09810565 0.00670459
Ag 4.15897849 6.20301526 2.08025170
Ag 6.19771379 4.06366347 2.04341332
Ag 6.07725676 6.06731614 0.00012859
Ag 4.14681504 4.18420983 4.06561090
Ag 4.13002466 6.20718616 6.10505799
Ag 6.13400934 4.10917146 6.16303916
Ag 6.19236269 6.12262051 4.14381066
Ag 4.09404137 4.13708242 8.13981339
Ag 4.19939749 6.09576212 10.27449617
Ag 6.12882955 4.01413324 10.24834925
Ag 6.17995897 6.09378588 8.18275828
Ag 4.11984591 3.96036734 12.31047182
Ag 4.12801718 6.11541042 14.27088103
Ag 6.13641503 3.99817949 14.32166296
Ag 6.15016130 6.16249336 12.30759258
Ag 4.16956947 8.17477683 16.36299624
Ag 4.20447865 10.26552379 2.05669148
Ag 6.20313119 8.21899656 2.02557299
Ag 6.17474121 10.19326781 16.36284973
Ag 4.15090591 8.24629015 4.10058787
Ag 4.12002841 10.20246739 6.23941276
Ag 6.14572650 8.17342771 6.22756843
Ag 6.15257126 10.26711083 4.13026774
Ag 4.12573620 8.12821088 8.21314137
Ag 4.07070042 10.18240771 10.21724200
Ag 6.13124485 8.19483649 10.17370149
Ag 6.13771784 10.32194181 8.17530510
Ag 4.04655043 8.22121618 12.27906454
Ag 4.05182169 10.25334649 14.41397130
Ag 6.14690446 8.20751023 14.30802777
Ag 6.12811876 10.15217185 12.30571592
Ag 4.18047093 12.29761214 0.10953638
Ag 4.14089745 14.35704947 2.12050157
Ag 6.26594115 12.30450705 2.06679849
Ag 6.17425793 14.35223655 0.06213139
Ag 4.17121850 12.28907380 4.06960360
Ag 4.09854531 14.38428224 6.06838503
Ag 6.11692799 12.36026786 6.10915959
Ag 6.19407788 14.38613720 4.06967383
Ag 4.11506405 12.37397935 8.21460903
Ag 4.03321972 14.30083991 10.28024448
Ag 6.06813990 12.21870659 10.31168686
Ag 6.17500691 14.38205346 8.09859458
Ag 4.07312208 12.18576840 12.34131024
Ag 4.20969813 14.38444890 14.35631180
Ag 6.14973116 12.27007960 14.31765883
Ag 6.12005544 14.32907646 12.25240997
Ag 8.26410663 0.02649938 0.05524595
Ag 8.22395889 2.10756667 2.06174465
Ag 10.27831293 16.37169457 2.05373927
Ag 10.22374593 2.11733722 0.04173012
Ag 8.16843275 0.06611491 3.99474941
Ag 8.17089682 2.04286502 6.16805730
Ag 10.15935767 0.04588957 6.17173020
Ag 10.24278233 2.02620653 4.13242433
Ag 8.23692959 16.36426011 8.27946634
Ag 8.22376390 2.01990689 10.21962245
Ag 10.25751472 16.36154114 10.32039934
Ag 10.25770072 2.11817775 8.22191187
Ag 8.13172836 16.37939536 12.26302040
Ag 8.25903228 1.98524020 14.31677723
Ag 10.26240596 16.33839222 14.30540416
Ag 10.21031482 2.03877359 12.26853346
Ag 8.20759382 4.13600302 16.30536091
Ag 8.09554187 6.10318722 2.05105391
Ag 10.18866796 4.15796751 2.03355299
Ag 10.19906543 6.12676361 16.36352002
Ag 8.22341738 4.05099114 4.13742955
Ag 8.19481388 6.09264723 6.16208129
Ag 10.25268855 4.08946535 6.14516138
Ag 10.18525746 6.16054258 4.05865503
Ag 8.17807214 4.06118490 8.20618800
Ag 8.12516181 6.19394964 10.23459883
Ag 10.19973495 4.15478062 10.33477469
Ag 10.21131467 6.07786539 8.22312142
Ag 8.14141678 4.12173387 12.33260746
Ag 8.16501871 6.17877411 14.33975971
Ag 10.25474587 4.17109353 14.23958179
Ag 10.23313826 6.20070877 12.27370123
Ag 8.14743003 8.19357553 16.36296920
Ag 8.25110155 10.25869532 2.01934872
Ag 10.18779193 8.16504568 2.00579254
Ag 10.26411891 10.25897371 16.28548491
Ag 8.16191080 8.19984330 4.15938106
Ag 8.12500703 10.29819804 6.14833832
Ag 10.27828953 8.14439513 6.20360216
Ag 10.15575212 10.15872068 4.14857230
Ag 8.24131131 8.23989525 8.10915366
Ag 8.16172321 10.22983291 10.21304818
Ag 10.26781362 8.20095508 10.14213681
Ag 10.28967489 10.27609709 8.24142216
Ag 8.24635482 8.24863483 12.21803336
Ag 8.20077710 10.17529957 14.30784098
Ag 10.27983211 8.19851594 14.34127550
Ag 10.29804238 10.24175715 12.24700834
Ag 8.14498892 12.28677348 16.27773084
Ag 8.19113921 14.39144503 2.01307584
Ag 10.22449961 12.37219891 1.96389973
Ag 10.23755976 14.31994111 16.35968720
Ag 8.22745208 12.30879878 4.08492180
Ag 8.22593086 14.37108556 6.09083866
Ag 10.24179100 12.25271023 6.20695083
Ag 10.22467492 14.37414280 4.07405448
Ag 8.20938324 12.31445626 8.23679628
Ag 8.03575217 14.27184912 10.24217725
Ag 10.28197344 12.30464573 10.24007110
Ag 10.24263452 14.34870771 8.25462976
Ag 8.14278775 12.22459741 12.27967193
Ag 8.16840171 14.35291340 14.35685472
Ag 10.15295306 12.31604689 14.29601174
Ag 10.14689034 14.25347893 12.25794101
Ag 12.25576186 16.37156803 0.07590176
Ag 12.23586844 2.08785089 2.16385811
Ag 14.37905566 16.36331810 2.04666238
Ag 14.22720842 2.06952951 0.07831529
Ag 12.33619131 0.00979715 4.15463567
Ag 12.27024660 2.07536684 6.17809145
Ag 14.33153142 0.05430564 6.15106099
Ag 14.36471213 2.08141802 4.06892427
Ag 12.19605356 0.00302173 8.19540574
Ag 12.30447846 1.97152109 10.27591837
Ag 14.36965576 16.34304282 10.12234496
Ag 14.36038642 2.05619102 8.23092468
Ag 12.34807457 16.38725201 12.36575011
Ag 12.18696007 2.03147971 14.40577752
Ag 14.34408312 0.08270354 14.41955115
Ag 14.33553256 2.05100649 12.34773602
Ag 12.24501437 4.12511103 0.06360494
Ag 12.35082576 6.17795001 2.03506784
Ag 14.36703144 4.12690681 2.07521975
Ag 14.38921953 6.19843041 0.01830816
Ag 12.27719643 4.15312262 4.13371412
Ag 12.28295796 6.09683932 6.21141484
Ag 14.34144800 4.02156519 6.17935862
Ag 14.36429552 6.14693330 4.14702201
Ag 12.29164045 4.08723732 8.29740460
Ag 12.22938090 6.12179494 10.26499825
Ag 14.35170617 4.12602384 10.27603727
Ag 14.31998094 6.15376790 8.18694247
Ag 12.32089952 4.06449387 12.31122776
Ag 12.36902822 6.17941932 14.35513765
Ag 14.32347150 4.07975764 14.44604428
Ag 14.35274377 6.08788612 12.31389423
Ag 12.37513871 8.22141618 0.02039993
Ag 12.21384899 10.26061580 2.00233776
Ag 14.29313651 8.25960739 2.08631826
Ag 14.31241958 10.23674330 16.31882695
Ag 12.24504689 8.13373842 4.09604914
Ag 12.25528699 10.21578853 6.25143928
Ag 14.32770127 8.18171814 6.16682649
Ag 14.30212547 10.22302204 4.14898830
Ag 12.38336799 8.19201520 8.24603909
Ag 12.38894625 10.30305644 10.25893335
Ag 14.43490522 8.10486090 10.27439996
Ag 14.37219423 10.32139671 8.19036552
Ag 12.31692499 8.20629216 12.18992773
Ag 12.32167873 10.17061589 14.28727730
Ag 14.38632473 8.22345829 14.23351888
Ag 14.39605061 10.23559866 12.31813796
Ag 12.27604750 12.30655629 16.27370123
Ag 12.34239589 14.30493787 2.11175405
Ag 14.36364095 12.28742556 2.01171125
Ag 14.32635055 14.30959809 16.34893978
Ag 12.23124592 12.18941619 4.08453504
Ag 12.21518343 14.36740946 6.13756877
Ag 14.27417948 12.27478299 6.19504998
Ag 14.32304376 14.25831307 4.13121674
Ag 12.33837873 12.41434999 8.24679794
Ag 12.34357941 14.33476286 10.40341746
Ag 14.41066396 12.35858937 10.34591749
Ag 14.38121318 14.36656127 8.14811067
Ag 12.27114050 12.29295836 12.41953625
Ag 12.33646963 14.37649731 14.31275494
Ag 14.42092478 12.23752607 14.31768309
Ag 14.42402282 14.39851000 12.34507573
256
Lattice="16.39280000 0 0 0 16.39280000 0 0 0 16.39280000" Properties=species:S:1:pos:R:3 pbc="T T T" Frame=8
Ag 0.00548612 16.39113427 0.01876311
Ag 16.38065689 2.09310056 2.01150903
Ag 2.10156739 0.01703312 2.02229026
Ag 2.03451652 2.12844606 0.02184718
Ag 16.34819160 16.31936991 4.06522210
Ag 0.03524839 2.08697851 6.07339631
Ag 2.06274431 16.29340653 6.02199984
Ag 2.03379841 2.04523478 4.01880619
Ag 0.03275236 16.38929276 8.11054343
Ag 16.36014303 2.05235077 10.21038659
Ag 1.99640487 16.38060756 10.17750511
Ag 1.98579174 2.11789400 8.10470685
Ag 16.38908067 0.02122252 12.28984939
Ag 0.00951529 2.13946682 14.44247788
Ag 2.04002909 0.00317376 14.39576998
Ag 2.00348748 2.05640931 12.29075468
Ag 0.07186931 4.16174985 0.04346341
Ag 0.00704386 6.28365513 2.04748065
Ag 2.03488804 4.14917082 2.07244787
Ag 2.06676291 6.22641313 0.07107122
Ag 0.01332424 4.07932696 4.07954201
Ag 16.34874437 6.08882036 6.14562622
Ag 2.06299189 4.23385161 6.01113444
Ag 2.05206685 6.26182002 4.00084369
Ag 16.37532328 4.13077839 8.19661383
Ag 0.00211347 6.13286300 10.27004911
Ag 2.07237908 4.14267690 10.25381653
Ag 2.03688342 6.15227152 8.17073838
Ag 16.37806937 4.13649665 12.31655801
Ag 0.03240449 6.10577310 14.34717310
Ag 2.03444175 4.16146884 14.35789876
Ag 2.11685890 6.12530125 12.25669424
Ag 16.34053446 8.25779496 16.37006219
Ag 16.31250562 10.20142687 2.08132297
Ag 2.08701733 8.32766259 2.02471699
Ag 2.06018081 10.28867833 0.03443764
Ag 0.01674547 8.24425182 4.11080169
Ag 0.04816001 10.20570448 6.22474757
Ag 2.04449930 8.16781232 6.11475137
Ag 2.06360362 10.26431081 4.08090293
Ag 16.31907043 8.17037830 8.13116032
Ag 16.37219674 10.24071341 10.25740234
Ag 1.99712849 8.16191193 10.23126888
Ag 2.05328336 10.25037504 8.22839523
Ag 0.09768937 8.11894751 12.29993251
Ag 0.11810671 10.25251971 14.32539646
Ag 2.08054078 8.20858554 14.34796713
Ag 2.03948090 10.17427372 12.29480379
Ag 0.05168455 12.29064896 16.34027019
Ag 0.05648741 14.33149487 2.02306631
Ag 2.02318675 12.27182466 2.06602684
Ag 2.14350638 14.34020107 0.04016274
Ag 16.34856210 12.19767105 4.13916254
Ag 16.37417428 14.24934856 6.11723244
Ag 2.14512671 12.24246939 6.18570943
Ag 2.04730904 14.19361624 4.06805495
Ag 0.06404943 12.24969613 8.17972818
Ag 0.02890487 14.30968006 10.23258255
Ag 2.01102153 12.21791367 10.27032184
Ag 2.04741639 14.30865711 8.15786057
Ag 0.03054945 12.26914427 12.33679707
Ag 16.38864646 14.33959372 14.40283156
Ag 2.13033169 12.33617168 14.43719017
Ag 2.02924354 14.31301785 12.35438230
Ag 4.12181205 0.04296623 0.00026795
Ag 4.06118260 2.12646106 1.99917511
Ag 6.19140211 0.10243231 2.02182957
Ag 6.17220863 2.06368201 16.32781199
Ag 4.11365278 0.01882080 4.03454870
Ag 4.01616259 2.08035721 6.10517338
Ag 6.17936497 0.03543703 6.07883924
Ag 6.18798720 2.13814156 4.12332317
Ag 4.03524867 0.00149269 8.07568104
Ag 3.95434836 2.03383053 10.14913576
Ag 6.01554659 0.01152784 10.19366122
Ag 6.12189340 2.01457212 8.16851216
Ag 3.97653007 0.02000895 12.30751448
Ag 4.08369486 1.98369261 14.39926022
Ag 6.23461569 0.00787860 14.40659545
Ag 6.16997145 1.91315288 12.32764623
Ag 4.00178305 4.09290979 0.00567147
Ag 4.16665418 6.22084378 2.06072818
Ag 6.19552956 4.09702810 2.04896137
Ag 6.09987213 6.10945266 16.39251830
Ag 4.12226099 4.19419213 4.07834844
Ag 4.14826803 6.19351688 6.09202560
Ag 6.12512386 4.10459622 6.16538704
Ag 6.18371572 6.11347760 4.14643643
Ag 4.10432723 4.13275019 8.14012993
Ag 4.18905392 6.10833903 10.28094005
Ag 6.12376481 4.01175934 10.21783767
Ag 6.15390440 6.09184921 8.16541087
Ag 4.11437736 3.97925308 12.30603566
Ag 4.13221118 6.10544292 14.28459829
Ag 6.13270497 3.98573086 14.29440835
Ag 6.14204802 6.16473144 12.27698255
Ag 4.18706359 8.17699259 0.00001921
Ag 4.19145124 10.24894877 2.03838549
Ag 6.19841662 8.21868371 2.02585450
Ag 6.18221049 10.19716309 16.35471372
Ag 4.13117442 8.24595147 4.10156203
Ag 4.13175190 10.20298351 6.21914610
Ag 6.13712605 8.16957340 6.24287814
Ag 6.17827670 10.26738348 4.12029243
Ag 4.12428193 8.11585758 8.22259983
Ag 4.05984678 10.19989770 10.21518314
Ag 6.14531780 8.18000699 10.17469012
Ag 6.12102053 10.30601565 8.18207645
Ag 4.04989489 8.21568760 12.27400949
Ag 4.06342147 10.24225568 14.39000519
Ag 6.14309527 8.20328576 14.31953858
Ag 6.11038118 10.15844475 12.32346169
Ag 4.17343685 12.31616310 0.10655948
Ag 4.11876759 14.35466425 2.11519480
Ag 6.24819980 12.30518980 2.07876195
Ag 6.19823716 14.35663513 0.04446022
Ag 4.16048718 12.30115792 4.07980982
Ag 4.11030193 14.38155381 6.05207125
Ag 6.10804385 12.36657308 6.10877742
Ag 6.20488386 14.39143145 4.06224746
Ag 4.10761895 12.34953227 8.20687427
Ag 4.01178537 14.32539976 10.28183909
Ag 6.08162883 12.22718198 10.30405535
Ag 6.15556483 14.39549706 8.11230704
Ag 4.06876027 12.17931480 12.33636758
Ag 4.18337316 14.38521492 14.37560622
Ag 6.16166632 12.26067764 14.31414740
Ag 6.12145564 14.32560708 12.27450805
Ag 8.25779098 0.01400623 0.03889566
Ag 8.23958372 2.11041652 2.05809816
Ag 10.29028744 16.37513870 2.08662565
Ag 10.24367201 2.11162898 0.05098772
Ag 8.16080547 0.05705706 4.01437343
Ag 8.18239281 2.03979972 6.16717164
Ag 10.14903941 0.03165822 6.17012391
Ag 10.26130382 2.04072471 4.12455673
Ag 8.22821647 0.00222339 8.26820901
Ag 8.20859591 1.99037234 10.22661838
Ag 10.26065162 16.36600734 10.29079896
Ag 10.25757652 2.09698235 8.24432975
Ag 8.12330559 16.39126215 12.25559505
Ag 8.25644887 2.00259098 14.29509260
Ag 10.24836963 16.34105228 14.30734752
Ag 10.21274838 2.03602991 12.27575630
Ag 8.21780428 4.14033425 16.30482123
Ag 8.10366325 6.10021965 2.03052844
Ag 10.20517587 4.17175926 2.05068324
Ag 10.21161410 6.11693720 16.36537634
Ag 8.19726448 4.06098868 4.13883212
Ag 8.20114778 6.09707315 6.15417954
Ag 10.25024442 4.07510644 6.14813516
Ag 10.18939409 6.16267953 4.05386285
Ag 8.15189280 4.06919728 8.21237428
Ag 8.14584378 6.18527405 10.25265467
Ag 10.21490627 4.15658586 10.33073532
Ag 10.22808358 6.08465186 8.24221045
Ag 8.14633663 4.11249634 12.34742244
Ag 8.16640991 6.17826003 14.34635961
Ag 10.24499064 4.19974500 14.24733458
Ag 10.25970304 6.18163668 12.27783067
Ag 8.13792201 8.18359050 16.35279416
Ag 8.26002018 10.22526977 2.02726273
Ag 10.20112301 8.17391973 2.01687250
Ag 10.24586521 10.24480496 16.28568009
Ag 8.17203351 8.19964191 4.14554919
Ag 8.16570909 10.30003553 6.17446043
Ag 10.26356724 8.14967866 6.22025063
Ag 10.17275974 10.16245715 4.13209929
Ag 8.22575320 8.25168415 8.11603419
Ag 8.19039685 10.23545351 10.20283184
Ag 10.26834642 8.20258172 10.14597898
Ag 10.29555799 10.28347805 8.22782119
Ag 8.21667350 8.25314788 12.21852832
Ag 8.20183839 10.17426957 14.30862801
Ag 10.28606897 8.20850839 14.32613186
Ag 10.30247267 10.23479677 12.23695108
Ag 8.14924693 12.29519572 16.27036754
Ag 8.20333559 14.39266838 2.00793002
Ag 10.23942751 12.37615315 1.97142061
Ag 10.24672521 14.32449167 16.38698414
Ag 8.23530395 12.30808667 4.08700717
Ag 8.23794830 14.38212558 6.10203032
Ag 10.24165135 12.25917042 6.21284425
Ag 10.24222534 14.37418035 4.06693973
Ag 8.20558962 12.32471796 8.22826986
Ag 8.04026561 14.25278477 10.23691454
Ag 10.27840583 12.29418299 10.25521230
Ag 10.23937240 14.33450889 8.26064662
Ag 8.12196334 12.23136382 12.26260675
Ag 8.13756498 14.33355162 14.34779847
Ag 10.16533092 12.29455046 14.28855977
Ag 10.16645403 14.23806809 12.27975394
Ag 12.27140458 16.37705773 0.06320827
Ag 12.22906452 2.09004755 2.14871506
Ag 14.34414538 16.35710040 2.05100935
Ag 14.22599711 2.08615399 0.09087027
Ag 12.33038597 0.00805754 4.14312503
Ag 12.27793576 2.07845528 6.17091918
Ag 14.31533923 0.04214381 6.14406024
Ag 14.36894110 2.07478687 4.08331616
Ag 12.21030097 16.38168863 8.19582740
Ag 12.29952079 1.99106268 10.29256469
Ag 14.38427732 16.34943980 10.15029644
Ag 14.36103746 2.03756523 8.22482052
Ag 12.36558354 16.39005812 12.35890881
Ag 12.21619494 2.03417462 14.40700070
Ag 14.33057965 0.06623996 14.41668982
Ag 14.32892356 2.04519325 12.34300914
Ag 12.24325562 4.13461581 0.05555752
Ag 12.31486070 6.18324045 2.03482356
Ag 14.36357273 4.11380260 2.07865657
Ag 14.36561762 6.22297022 0.02354752
Ag 12.27407493 4.14915681 4.11637005
Ag 12.30552000 6.10422782 6.21735709
Ag 14.34679505 4.03779129 6.16597930
Ag 14.35302819 6.13665921 4.16102782
Ag 12.27031825 4.08453866 8.29511699
Ag 12.24191610 6.13279192 10.26513790
Ag 14.36055110 4.11297558 10.27499504
Ag 14.33074098 6.13789247 8.19760412
Ag 12.30412901 4.06632653 12.32276753
Ag 12.35247491 6.14544313 14.32069714
Ag 14.31334286 4.07062368 14.43914915
Ag 14.35172403 6.09705361 12.31850972
Ag 12.36682878 8.23293432 0.04677231
Ag 12.21757810 10.25146951 2.00676690
Ag 14.28028209 8.26136931 2.08694281
Ag 14.31468215 10.23399222 16.32303465
Ag 12.23825312 8.14498101 4.08075910
Ag 12.24801684 10.22118896 6.26980344
Ag 14.31978608 8.16732498 6.19179349
Ag 14.30187892 10.22100018 4.11906859
Ag 12.37651426 8.19384613 8.24827649
Ag 12.37253332 10.32045743 10.26523851
Ag 14.42070272 8.08342367 10.26983570
Ag 14.38142705 10.29413223 8.16818136
Ag 12.30885930 8.18903493 12.20812944
Ag 12.30895783 10.16039423 14.26577927
Ag 14.38195176 8.22509964 14.24761355
Ag 14.39806125 10.24333129 12.32007157
Ag 12.28223399 12.30984790 16.29006414
Ag 12.32276367 14.29089197 2.09769288
Ag 14.32492445 12.28044618 2.03446636
Ag 14.33807342 14.32514912 16.35538686
Ag 12.20684994 12.20542649 4.08118621
Ag 12.22377409 14.36347587 6.13661849
Ag 14.26047830 12.26857633 6.20696867
Ag 14.32610915 14.27056007 4.13999045
Ag 12.30848213 12.39694719 8.24064655
Ag 12.33591900 14.34607250 10.40411291
Ag 14.41626004 12.36843329 10.36341380
Ag 14.38151890 14.37402430 8.13961666
Ag 12.29303615 12.29802891 12.39485269
Ag 12.33998363 14.38443956 14.30008644
Ag 14.41292054 12.24897692 14.31988816
Ag 14.42273527 14.40386426 12.35719295
256
Lattice="16.39280000 0 0 0 16.39280000 0 0 0 16.39280000" Properties=species:S:1:pos:R:3 pbc="T T T" Frame=9
Ag 0.00339582 16.39018156 0.03098793
Ag 16.39095741 2.09458092 2.02362337
Ag 2.09522172 16.38423787 2.02588434
Ag 2.03471838 2.11309800 0.01680084
Ag 16.34297774 16.32729038 4.06267007
Ag 0.02670289 2.10417195 6.07062190
Ag 2.08034250 16.30861355 6.02932920
Ag 2.03340216 2.06593805 4.00349885
Ag 0.03707819 16.39070545 8.13043456
Ag 16.36966341 2.05611055 10.21009729
Ag 2.00956115 16.38574933 10.18351501
Ag 1.98624613 2.11035736 8.09947933
Ag 16.38861612 0.01127005 12.30615952
Ag 0.00383320 2.14153599 14.45183424
Ag 2.04875629 0.00120807 14.38150111
Ag 2.01176755 2.04498828 12.29302295
Ag 0.07294915 4.14695371 0.04196576
Ag 0.01627598 6.29998594 2.03818283
Ag 2.03485732 4.15609836 2.08651975
Ag 2.05802187 6.22127761 0.08825013
Ag 0.00597661 4.10121253 4.06330788
Ag 16.36521141 6.09854790 6.14287391
Ag 2.04982480 4.22848614 6.01850639
Ag 2.06703479 6.26705783 4.02252822
Ag 16.38021361 4.13570242 8.17389806
Ag 16.38655042 6.12531684 10.27127141
Ag 2.07179900 4.11620361 10.25514562
Ag 2.03870643 6.14525041 8.16911971
Ag 16.38015862 4.14779726 12.31982130
Ag 0.03657037 6.09135148 14.34320549
Ag 2.04007459 4.15100901 14.35867222
Ag 2.10640265 6.11633807 12.24398279
Ag 16.36310063 8.25938186 16.39167278
Ag 16.33929749 10.21574015 2.08942616
Ag 2.08984368 8.29964932 2.03501779
Ag 2.07702445 10.28649029 0.03028027
Ag 0.00687060 8.25327772 4.10927066
Ag 0.03904901 10.22395029 6.21790220
Ag 2.04533271 8.18235775 6.11280727
Ag 2.08637158 10.25204365 4.08382390
Ag 16.32005438 8.17010339 8.14066490
Ag 0.00421735 10.24755792 10.24951690
Ag 2.02958854 8.13830683 10.24497336
Ag 2.04241285 10.24431035 8.21734610
Ag 0.09503834 8.13590313 12.28182156
Ag 0.09924342 10.25047107 14.33155584
Ag 2.09047173 8.21027514 14.34367137
Ag 2.04652450 10.17252476 12.30419372
Ag 0.05455701 12.30776683 16.32720783
Ag 0.05509736 14.30200986 2.01551135
Ag 2.03163774 12.26086567 2.07321401
Ag 2.15517015 14.35101088 0.05407666
Ag 16.36189178 12.19315947 4.11796864
Ag 16.38736223 14.25368074 6.10365808
Ag 2.12756402 12.25981983 6.18315542
Ag 2.04758351 14.20763484 4.05483888
Ag 0.06075890 12.24947080 8.19508388
Ag 0.02922710 14.31692177 10.23197096
Ag 2.02979434 12.23552062 10.25454859
Ag 2.05172361 14.29738329 8.14884554
Ag 0.05667828 12.27941987 12.33598040
Ag 0.00763640 14.34697016 14.40954965
Ag 2.12230630 12.32990715 14.43682340
Ag 2.03229548 14.33003656 12.34728596
Ag 4.11021216 0.04173160 0.00148784
Ag 4.05691867 2.12093186 1.98731127
Ag 6.18832797 0.09321908 2.03665167
Ag 6.16583164 2.06486277 16.31668194
Ag 4.08769631 0.00895104 4.04452957
Ag 4.03432515 2.07084524 6.10517960
Ag 6.17530146 0.02440267 6.09910335
Ag 6.20591663 2.13859063 4.11804746
Ag 4.02328681 16.39181391 8.07196690
Ag 3.96364494 2.03244390 10.15180684
Ag 6.01470343 16.38865045 10.18550058
Ag 6.09953372 2.02430018 8.17181928
Ag 3.97986069 0.03495917 12.30184774
Ag 4.08562269 1.97331356 14.39120179
Ag 6.19419192 0.02776037 14.39916546
Ag 6.15266767 1.90582883 12.34674600
Ag 4.01431840 4.09528080 0.00234803
Ag 4.17046784 6.23397066 2.04215055
Ag 6.18511929 4.12689756 2.05059670
Ag 6.12596237 6.14902530 16.38592898
Ag 4.09549946 4.19585489 4.08763926
Ag 4.15901068 6.17827587 6.08302254
Ag 6.11768953 4.09579534 6.16605668
Ag 6.17586849 6.11161015 4.14386524
Ag 4.10883003 4.12609993 8.14273787
Ag 4.17017815 6.12104248 10.28280746
Ag 6.12000099 4.00957570 10.19303525
Ag 6.13047251 6.09376647 8.15335042
Ag 4.10891034 4.00147069 12.29931398
Ag 4.13466391 6.09801164 14.30344779
Ag 6.12811051 3.98315340 14.27179626
Ag 6.13567805 6.16550765 12.24906312
Ag 4.19552526 8.18233862 0.02736312
Ag 4.17530274 10.23445992 2.02149272
Ag 6.19338233 8.21706789 2.03292111
Ag 6.18831245 10.21010110 16.34911521
Ag 4.11420499 8.24496388 4.10208688
Ag 4.14000974 10.20578524 6.19238023
Ag 6.13317355 8.17013629 6.24760113
Ag 6.20467618 10.26507174 4.11070179
Ag 4.11537720 8.10808951 8.23117267
Ag 4.05188766 10.21796397 10.21430128
Ag 6.16094857 8.17003951 10.17928007
Ag 6.10730294 10.28740591 8.19204264
Ag 4.05904710 8.20567336 12.26907011
Ag 4.07908372 10.23020782 14.36697442
Ag 6.13651084 8.19340718 14.32992560
Ag 6.09301617 10.16974415 12.33504788
Ag 4.16660898 12.33330123 0.09644873
Ag 4.10035350 14.35232979 2.10326694
Ag 6.22767142 12.30356243 2.08699166
Ag 6.21551754 14.36295907 0.02585712
Ag 4.14695377 12.30786208 4.08916340
Ag 4.12342214 14.37525770 6.03918091
Ag 6.10608299 12.36865728 6.11174298
Ag 6.21405201 14.39514432 4.05464373
Ag 4.10148696 12.32291988 8.20053016
Ag 3.99458136 14.34971143 10.28129281
Ag 6.09283935 12.23763932 10.29060081
Ag 6.13190139 14.40702658 8.13060712
Ag 4.06419104 12.18225497 12.32850963
Ag 4.15359430 14.38274517 14.39320904
Ag 6.16626127 12.25113120 14.31158139
Ag 6.11670238 14.32528219 12.29995609
Ag 8.25228465 0.00474194 0.01866584
Ag 8.25400739 2.11175878 2.05058095
Ag 10.30023476 16.38156792 2.11697439
Ag 10.26309237 2.10139897 0.05540612
Ag 8.16032138 0.04663359 4.04091299
Ag 8.19581809 2.03935412 6.16801276
Ag 10.14832544 0.01675985 6.16622218
Ag 10.27591663 2.05663630 4.11752224
Ag 8.21502419 0.02985992 8.25204023
Ag 8.18939484 1.96860953 10.23797447
Ag 10.26223332 16.36679190 10.26371696
Ag 10.25507073 2.07280687 8.26626656
Ag 8.12522897 16.39145057 12.24682867
Ag 8.25480086 2.02458085 14.28087146
Ag 10.23210198 16.34399210 14.31091348
Ag 10.21938939 2.03348903 12.28425244
Ag 8.22360159 4.13751665 16.30742359
Ag 8.12087468 6.10488699 2.01095352
Ag 10.22346148 4.18197497 2.07080719
Ag 10.22867093 6.11761252 16.36786730
Ag 8.17535500 4.07658350 4.13875433
Ag 8.20968462 6.10489986 6.14832584
Ag 10.24637692 4.06389991 6.15355786
Ag 10.19534597 6.16393609 4.05529660
Ag 8.13090291 4.07718364 8.21940811
Ag 8.17020586 6.17211005 10.26782322
Ag 10.22710841 4.14886962 10.32331971
Ag 10.24308669 6.09487955 8.25675809
Ag 8.15243311 4.10114134 12.35267706
Ag 8.16698082 6.17951070 14.34688876
Ag 10.23599857 4.21807269 14.26381159
Ag 10.28163558 6.16742243 12.28312174
Ag 8.13730573 8.17049852 16.34543811
Ag 8.26530711 10.19673346 2.03289781
Ag 10.21496698 8.18110640 2.02520972
Ag 10.22724459 10.23140350 16.29348802
Ag 8.18023654 8.19617517 4.13139864
Ag 8.20768287 10.30025498 6.20004203
Ag 10.25030763 8.15558968 6.23238041
Ag 10.19731945 10.17215124 4.11576565
Ag 8.20666175 8.25747962 8.13256061
Ag 8.21892137 10.24293346 10.19308411
Ag 10.26667970 8.20521784 10.15658076
Ag 10.29677786 10.28896589 8.21704489
Ag 8.18795613 8.25065880 12.22341013
Ag 8.20341637 10.17807202 14.30674221
Ag 10.28987767 8.21112065 14.31044500
Ag 10.30060247 10.22814988 12.22809669
Ag 8.15924290 12.29918849 16.27675732
Ag 8.21781352 14.38986496 2.00682679
Ag 10.25076550 12.36825888 1.98267531
Ag 10.25690158 14.33309700 0.01551499
Ag 8.24510471 12.30746185 4.09065150
Ag 8.24687429 14.38932797 6.11728008
Ag 10.24156601 12.27169217 6.21248405
Ag 10.25941696 14.37184770 4.06400227
Ag 8.19718099 12.33214793 8.21514991
Ag 8.05620414 14.24416894 10.23325590
Ag 10.27132344 12.28320716 10.27151384
Ag 10.23370777 14.32224902 8.26531807
Ag 8.10598661 12.23667888 12.24743163
Ag 8.11205563 14.31718173 14.33395125
Ag 10.18367302 12.27036478 14.28397215
Ag 10.18641374 14.23493022 12.30188251
Ag 12.28615702 16.38255707 0.04756840
Ag 12.22823510 2.09099387 2.12709212
Ag 14.30765567 16.35226730 2.05616849
Ag 14.23272352 2.09994788 0.10108990
Ag 12.32135347 0.00590772 4.12867005
Ag 12.28653541 2.07884436 6.16406474
Ag 14.30287828 0.02734638 6.13796492
Ag 14.36945674 2.06493896 4.09742367
Ag 12.23164861 16.36742044 8.19678502
Ag 12.29604660 2.01443003 10.30750731
Ag 14.39672697 16.35806595 10.18727014
Ag 14.35787934 2.02028072 8.21420891
Ag 12.37649785 0.00342058 12.34610201
Ag 12.24725887 2.04020220 14.40490549
Ag 14.32194323 0.04945938 14.41418221
Ag 14.32705762 2.04095172 12.33660408
Ag 12.24504010 4.14496398 0.04374407
Ag 12.27668717 6.18482105 2.03667406
Ag 14.35775663 4.10682745 2.07975548
Ag 14.34188243 6.24093212 0.02593067
Ag 12.27204155 4.14428911 4.09812421
Ag 12.32422065 6.11314859 6.21951585
Ag 14.34926682 4.05779557 6.15298279
Ag 14.34049970 6.12877344 4.16844802
Ag 12.25335318 4.08030980 8.28790405
Ag 12.26388844 6.14336518 10.26459756
Ag 14.36566524 4.09719976 10.27236922
Ag 14.34163459 6.11549239 8.21126412
Ag 12.28824483 4.06848134 12.33170407
Ag 12.33185512 6.11646982 14.29087196
Ag 14.30489338 4.06399501 14.42940454
Ag 14.34965614 6.10913919 12.32322808
Ag 12.34698501 8.23854792 0.06239638
Ag 12.22195619 10.24526042 2.01382399
Ag 14.27252894 8.25750721 2.08861425
Ag 14.32100945 10.23728334 16.33106837
Ag 12.23381725 8.16115202 4.07213264
Ag 12.24577929 10.22667325 6.27516117
Ag 14.31035970 8.15720357 6.20703927
Ag 14.29743776 10.21993709 4.09524790
Ag 12.36434969 8.19563692 8.25222973
Ag 12.35826738 10.33370142 10.26874384
Ag 14.40042637 8.07439537 10.26614341
Ag 14.38653209 10.26308591 8.15704071
Ag 12.30238174 8.17136685 12.22912065
Ag 12.29591303 10.15800473 14.24978639
Ag 14.37866117 8.22042211 14.26806266
Ag 14.39988467 10.24878383 12.31586076
Ag 12.28947451 12.30997988 16.30838775
Ag 12.30270448 14.28101865 2.07899737
Ag 14.28792905 12.27150719 2.05535573
Ag 14.34977428 14.34049230 16.36712730
Ag 12.18491757 12.22480154 4.08288397
Ag 12.23456273 14.35796315 6.13614269
Ag 14.25107062 12.26339535 6.21035520
Ag 14.32815613 14.28406892 4.14639137
Ag 12.28076250 12.37516861 8.23794165
Ag 12.32706992 14.35773487 10.39437509
Ag 14.41544275 12.37327443 10.37089196
Ag 14.37820838 14.37757926 8.13532316
Ag 12.31932720 12.30233801 12.36426773
Ag 12.33868757 14.38761533 14.29332570
Ag 14.39951158 12.26393753 14.32444899
Ag 14.42060956 14.40568015 12.36833454
256
Lattice="16.39280000 0 0 0 16.39280000 0 0 0 16.39280000" Properties=species:S:1:pos:R:3 pbc="T T T" Frame=10
Ag 0.00100536 16.39206805 0.04380467
Ag 0.00674790 2.08839961 2.03653541
Ag 2.08178913 16.36083483 2.03224228
Ag 2.03460907 2.08936526 0.01164822
Ag 16.34328452 16.33876563 4.06079384
Ag 0.01852005 2.11417721 6.07101153
Ag 2.08722264 16.33038163 6.03838842
Ag 2.03466005 2.08429416 3.99550773
Ag 0.04124718 16.39140445 8.14682614
Ag 16.38346427 2.06097979 10.21386075
Ag 2.02100936 16.39138334 10.19161523
Ag 1.98972480 2.10133511 8.09549238
Ag 16.39046420 0.00413264 12.32463471
Ag 16.38771863 2.13472542 14.45358400
Ag 2.05210672 16.39210130 14.36874923
Ag 2.01635380 2.03703435 12.29795078
Ag 0.06311859 4.13685972 0.04285733
Ag 0.01926311 6.30757640 2.03327857
Ag 2.03720356 4.16670344 2.09891858
Ag 2.05224615 6.21602823 0.09637304
Ag 16.39003054 4.13030455 4.04586644
Ag 16.38308900 6.11676868 6.13684032
Ag 2.03862788 4.21423298 6.03360381
Ag 2.08018163 6.26730360 4.04669441
Ag 16.38717108 4.13614338 8.15363624
Ag 16.38272121 6.11485308 10.26730115
Ag 2.06689929 4.08855599 10.25191161
Ag 2.04195453 6.13805752 8.16911261
Ag 16.38401129 4.14882695 12.32173317
Ag 0.03677430 6.08796603 14.34350462
Ag 2.05128107 4.13540003 14.35624148
Ag 2.09464588 6.10706879 12.23852889
Ag 16.38977235 8.25963896 0.01721335
Ag 16.36898978 10.23579240 2.08903777
Ag 2.09159451 8.26847899 2.04483676
Ag 2.09492465 10.28011528 0.02512083
Ag 16.38551370 8.25878106 4.11182875
Ag 0.02673155 10.24452710 6.19970322
Ag 2.04822416 8.19761551 6.11720239
Ag 2.10947945 10.24181591 4.09133056
Ag 16.33220493 8.16813810 8.15911196
Ag 0.02621552 10.24869298 10.24191992
Ag 2.06364271 8.11792470 10.25137308
Ag 2.03593678 10.22953524 8.20454297
Ag 0.08284739 8.15496495 12.26796595
Ag 0.07433422 10.24686667 14.33967411
Ag 2.09970071 8.20337482 14.34590018
Ag 2.05432782 10.17885043 12.31048256
Ag 0.05092783 12.32080057 16.32582280
Ag 0.04546451 14.27245312 2.01016063
Ag 2.04325099 12.24622751 2.07563761
Ag 2.15890368 14.36174943 0.06422817
Ag 16.37488518 12.19332764 4.09838076
Ag 0.00964881 14.26139912 6.09226975
Ag 2.10619130 12.27643378 6.17321924
Ag 2.04441990 14.23179381 4.04651584
Ag 0.04873877 12.25597557 8.21095433
Ag 0.03197027 14.32753011 10.23168970
Ag 2.05196932 12.25877870 10.24104389
Ag 2.05554741 14.29018435 8.14099685
Ag 0.08482605 12.29188743 12.33638146
Ag 0.02333500 14.35780346 14.41209503
Ag 2.11463612 12.32268459 14.42854916
Ag 2.03614974 14.34686600 12.33945134
Ag 4.10129427 0.03593466 0.00855436
Ag 4.06181137 2.11189652 1.98361126
Ag 6.17911819 0.08262787 2.04904229
Ag 6.16289806 2.06963279 16.31712327
Ag 4.06750877 0.00454754 4.05464405
Ag 4.05516153 2.06224439 6.10128727
Ag 6.16811874 0.01463513 6.12055263
Ag 6.21093009 2.13113151 4.10876236
Ag 4.01321678 16.38894165 8.07464648
Ag 3.98196713 2.03083245 10.15841604
Ag 6.01689877 16.37198112 10.18133779
Ag 6.07715679 2.03223970 8.17322640
Ag 3.99242425 0.04494285 12.29445915
Ag 4.08357392 1.97239321 14.37736260
Ag 6.15054357 0.03980187 14.38878681
Ag 6.12720841 1.91113849 12.35416477
Ag 4.03801837 4.10462570 16.39016109
Ag 4.16987384 6.23945198 2.02770124
Ag 6.16721227 4.15031499 2.04754447
Ag 6.15298881 6.18081076 16.37387627
Ag 4.07018462 4.18833966 4.09142994
Ag 4.15963088 6.16384093 6.07999637
Ag 6.11311894 4.08349195 6.16422320
Ag 6.16961231 6.11808432 4.13572510
Ag 4.10504257 4.11761835 8.14723840
Ag 4.14439125 6.13105473 10.27841005
Ag 6.11689161 4.00896745 10.17829864
Ag 6.11279105 6.09954710 8.14866679
Ag 4.10369225 4.02480010 12.29021795
Ag 4.13488076 6.09435098 14.32528513
Ag 6.12284217 3.99189174 14.25671996
Ag 6.13178103 6.16339043 12.22746965
Ag 4.19319845 8.19153835 0.04735387
Ag 4.15843288 10.22467016 2.00854700
Ag 6.18966058 8.21482128 2.04664225
Ag 6.19284211 10.23034237 16.34728483
Ag 4.10394164 8.24312335 4.10187141
Ag 4.14409218 10.21129882 6.16189397
Ag 6.13447244 8.17553455 6.24018018
Ag 6.22914769 10.26056796 4.10310693
Ag 4.09994067 8.10673482 8.23712887
Ag 4.04768236 10.23372761 10.21500894
Ag 6.17590106 8.16629868 10.18659279
Ag 6.09812117 10.26760202 8.20392435
Ag 4.07361067 8.19165914 12.26500661
Ag 4.09682156 10.21843641 14.34838437
Ag 6.12755237 8.17943338 14.33720606
Ag 6.07848861 10.18446223 12.33786482
Ag 4.16139222 12.34645552 0.07967796
Ag 4.08980210 14.35010133 2.08701934
Ag 6.20662469 12.30002017 2.09036884
Ag 6.22340973 14.37047656 0.00900765
Ag 4.13263713 12.30762857 4.09603305
Ag 4.13577135 14.36622354 6.03158742
Ag 6.11267659 12.36573602 6.11789567
Ag 6.22027845 14.39634612 4.04757308
Ag 4.09714279 12.29706567 8.19547823
Ag 3.98434855 14.37066484 10.27802645
Ag 6.09932186 12.24956348 10.27185198
Ag 6.10592263 14.41411049 8.15211105
Ag 4.05967541 12.19612506 12.31838743
Ag 4.12347728 14.37706423 14.40658458
Ag 6.16198804 12.24234675 14.31098410
Ag 6.10471192 14.32856396 12.32466227
Ag 8.24774682 0.00034575 16.38935029
Ag 8.26534334 2.11140799 2.04040152
Ag 10.30634084 16.39090489 2.14005534
Ag 10.28024626 2.08769602 0.05360435
Ag 8.16795268 0.03666641 4.07140347
Ag 8.20931652 2.04211161 6.17060721
Ag 10.15972421 0.00349686 6.16069999
Ag 10.28431873 2.07268524 4.11253963
Ag 8.19763752 0.05038239 8.23198930
Ag 8.16708709 1.95795861 10.25325117
Ag 10.26197423 16.36385773 10.24242938
Ag 10.25067399 2.04810819 8.28505746
Ag 8.13645280 16.37922411 12.23877356
Ag 8.25371684 2.04776904 14.27657259
Ag 10.21593690 16.34733416 14.31550967
Ag 10.22993376 2.03082107 12.29301514
Ag 8.22444906 4.12787820 16.31334784
Ag 8.14645620 6.11725859 1.99485653
Ag 10.24064646 4.18627860 2.09054056
Ag 10.24789222 6.12991265 16.37051116
Ag 8.16129169 4.09679729 4.13670786
Ag 8.21892812 6.11543414 6.14621482
Ag 10.24166409 4.05758061 6.16157807
Ag 10.20259678 6.16482024 4.06467236
Ag 8.11857582 4.08412002 8.22605225
Ag 8.19619930 6.15518824 10.27853395
Ag 10.23514709 4.13195447 10.31352869
Ag 10.25458534 6.10780874 8.26487782
Ag 8.15940448 4.08945678 12.34596873
Ag 8.16680933 6.18191365 14.33973955
Ag 10.22798817 4.22185866 14.28814988
Ag 10.29527863 6.15937699 12.28720542
Ag 8.14681740 8.15737841 16.34181071
Ag 8.26581920 10.17665765 2.03532658
Ag 10.22733459 8.18543610 2.02973031
Ag 10.21043461 10.21978277 16.30843195
Ag 8.18692406 8.18979703 4.11902128
Ag 8.24625354 10.29823709 6.22136011
Ag 10.24003001 8.16168559 6.23868825
Ag 10.22608195 10.18690309 4.10205002
Ag 8.18630497 8.25530581 8.15791446
Ag 8.24343773 10.25162740 10.18501622
Ag 10.26313062 8.20860611 10.17368975
Ag 10.29264422 10.29144172 8.21157794
Ag 8.16302740 8.24185854 12.23237282
Ag 8.20492504 10.18587000 14.30169010
Ag 10.28959851 8.20532674 14.29586777
Ag 10.29194011 10.22196752 12.22168664
Ag 8.17498483 12.29851710 16.29659050
Ag 8.23304286 14.38342368 2.01015803
Ag 10.25600585 12.34737353 1.99606806
Ag 10.26718643 14.34494446 0.02771892
Ag 8.25614377 12.30705306 4.09552687
Ag 8.25045405 14.39093693 6.13544189
Ag 10.24182553 12.29010394 6.20527000
Ag 10.27350742 14.36702540 4.06677907
Ag 8.18391962 12.33597868 8.19869075
Ag 8.08201111 14.24841727 10.23206320
Ag 10.26089209 12.27433629 10.28744410
Ag 10.22629508 14.31386352 8.26823768
Ag 8.09749681 12.23966100 12.23651718
Ag 8.09592334 14.30588607 14.31597251
Ag 10.20668437 12.24572012 14.28258885
Ag 10.20499963 14.24415052 12.32223837
Ag 12.29740347 16.38756177 0.03040725
Ag 12.23449049 2.09082610 2.10120274
Ag 14.27387127 16.34946310 2.06214262
Ag 14.24797765 2.10893373 0.10762996
Ag 12.31007909 0.00363984 4.11381517
Ag 12.29485413 2.07621737 6.15844988
Ag 14.29615102 0.01104650 6.13314251
Ag 14.36560987 2.05331847 4.10894102
Ag 12.25823335 16.35448737 8.19861109
Ag 12.29464035 2.03897641 10.31846469
Ag 14.40575038 16.36830021 10.22951665
Ag 14.35149244 2.00611345 8.20037642
Ag 12.37831353 0.01229262 12.32900343
Ag 12.27635598 2.04854795 14.39958238
Ag 14.32043265 0.03478602 14.41260102
Ag 14.33152573 2.03930246 12.32955187
Ag 12.25047827 4.15510318 0.02941956
Ag 12.24148358 6.18292570 2.04084306
Ag 14.34962816 4.10781774 2.07848872
Ag 14.32004777 6.25039385 0.02507357
Ag 12.27187076 4.13906822 4.08200778
Ag 12.33542143 6.12231436 6.21785569
Ag 14.34826900 4.07927335 6.14173451
Ag 14.32775694 6.12550038 4.16732657
Ag 12.24307282 4.07455543 8.27606048
Ag 12.29287169 6.15073379 10.26362073
Ag 14.36623439 4.07973457 10.26879420
Ag 14.35119637 6.08921025 8.22612908
Ag 12.27559212 4.06987754 12.33612991
Ag 12.31037401 6.09662212 14.27024719
Ag 14.29977849 4.06139232 14.41748975
Ag 14.34737643 6.12215021 12.32743094
Ag 12.31692894 8.23873263 0.06436631
Ag 12.22622454 10.24343673 2.02269637
Ag 14.27164300 8.24818035 2.09066839
Ag 14.33056268 10.24576884 16.34253068
Ag 12.23243712 8.18023083 4.07247236
Ag 12.24885295 10.23120627 6.26552138
Ag 14.30108127 8.15206121 6.21077570
Ag 14.28865734 10.22086175 4.08081943
Ag 12.34767291 8.19687039 8.25766642
Ag 12.34824493 10.33979971 10.26887267
Ag 14.37645895 8.07991057 10.26366745
Ag 14.38662082 10.23185621 8.15929529
Ag 12.29898836 8.15598445 12.25029767
Ag 12.28496971 10.16486861 14.24177730
Ag 14.37652088 8.21023596 14.29321437
Ag 14.40206970 10.25086757 12.30622910
Ag 12.29669251 12.30645682 16.32643356
Ag 12.28515403 14.27743588 2.05740372
Ag 14.25635399 12.26170335 2.07283063
Ag 14.35980911 14.35330911 16.38335556
Ag 12.16885574 12.24576742 4.09045157
Ag 12.24614326 14.35122285 6.13665077
Ag 14.24729260 12.25969111 6.20480536
Ag 14.32849595 14.29663342 4.14874355
Ag 12.25908893 12.35168788 8.23929651
Ag 12.31830526 14.36851927 10.37421000
Ag 14.40945751 12.37306453 10.36705621
Ag 14.37197666 14.37658259 8.13662416
Ag 12.34707698 12.30571618 12.33139761
Ag 12.33184671 14.38503183 14.29387378
Ag 14.38254596 12.28117181 14.33053748
Ag 14.41842264 14.40287959 12.37700498
256
Lattice="16.39280000 0 0 0 16.39280000 0 0 0 16.39280000" Properties=species:S:1:pos:R:3 pbc="T T T" Frame=11
Ag 16.39080945 0.00362649 0.05661945
Ag 0.01222225 2.07570494 2.04938367
Ag 2.06191382 16.34301043 2.04206563
Ag 2.03517584 2.06102130 0.00758480
Ag 16.34886428 16.35265287 4.05901055
Ag 0.01097029 2.11657704 6.07353089
Ag 2.08204383 16.35681281 6.04866381
Ag 2.03734162 2.09835398 3.99648765
Ag 0.04423506 16.39095410 8.15855792
Ag 0.00710039 2.06610910 10.22072171
Ag 2.02901837 0.00523312 10.20121493
Ag 1.99676063 2.09116361 8.09306457
Ag 0.00197639 0.00098130 12.34393158
Ag 16.37626916 2.11925770 14.44742158
Ag 2.05014299 16.39089426 14.35921829
Ag 2.01704357 2.03346346 12.30512261
Ag 0.04417743 4.13189135 0.04637308
Ag 0.01488226 6.30474331 2.03454738
Ag 2.04204204 4.18016195 2.10572881
Ag 2.05038230 6.20943528 0.09334504
Ag 16.38066860 4.16380748 4.02978327
Ag 0.00737493 6.14287992 6.12790095
Ag 2.03000878 4.19150790 6.05489501
Ag 2.08919624 6.26252741 4.07178243
Ag 0.00287611 4.13093606 8.13755402
Ag 16.38336383 6.10318636 10.25900677
Ag 2.05801397 4.06216471 10.24413169
Ag 2.04633740 6.13075840 8.17058212
Ag 16.38864329 4.13906053 12.32229935
Ag 0.03363416 6.09562275 14.34848396
Ag 2.06633143 4.11577743 14.35181551
Ag 2.08184710 6.09836743 12.24191055
Ag 0.02484241 8.25933056 0.03049689
Ag 0.00596972 10.25810772 2.08004595
Ag 2.09183705 8.23834126 2.05431873
Ag 2.11196168 10.27006171 0.01820248
Ag 16.36890715 8.26066223 4.11783125
Ag 0.01158408 10.26515759 6.17288328
Ag 2.05243606 8.21246164 6.12791704
Ag 2.12949146 10.23433528 4.10208173
Ag 16.35386743 8.16440354 8.18381405
Ag 0.04474439 10.24470053 10.23589971
Ag 2.09449795 8.10351478 10.25113331
Ag 2.03415866 10.20880752 8.19037976
Ag 0.06314304 8.17415984 12.25898108
Ag 0.04618815 10.24209385 14.34884016
Ag 2.10697314 8.18883334 14.35332709
Ag 2.06235508 10.19162332 12.31364372
Ag 0.04199827 12.32768016 16.33554376
Ag 0.02784306 14.24542949 2.00871144
Ag 2.05821581 12.23049767 2.07306783
Ag 2.15167626 14.37001903 0.06861638
Ag 16.38616883 12.19911092 4.08220357
Ag 0.02425938 14.27226544 6.08438446
Ag 2.08293915 12.29003220 6.15690376
Ag 2.03833346 14.26374101 4.04299147
Ag 0.02880191 12.26803265 8.22535601
Ag 0.03662468 14.34067213 10.23216620
Ag 2.07466998 12.28534629 10.23018360
Ag 2.05885036 14.28837120 8.13471328
Ag 0.11109514 12.30505790 12.33754026
Ag 0.04136412 14.37096006 14.41092748
Ag 2.10785340 12.31441484 14.41351062
Ag 2.04120715 14.36273191 12.33145383
Ag 4.09596846 0.02721027 0.02048574
Ag 4.07440691 2.10037243 1.98788398
Ag 6.16621979 0.07121946 2.05795055
Ag 6.16330408 2.07727571 16.32855707
Ag 4.05521559 0.00544460 4.06298369
Ag 4.07642272 2.05534421 6.09351007
Ag 6.15856383 0.00736648 6.14066253
Ag 6.20373608 2.11638623 4.09596927
Ag 4.00564849 16.38604690 8.08399548
Ag 4.00773257 2.02881632 10.16887875
Ag 6.02264381 16.35653606 10.18261169
Ag 6.05732122 2.03664925 8.17249617
Ag 4.01286442 0.04783393 12.28606687
Ag 4.07649985 1.98232010 14.36052351
Ag 6.10885456 0.04198590 14.37638870
Ag 6.09826306 1.92800996 12.34747418
Ag 4.06956808 4.11840452 16.38477683
Ag 4.16510744 6.23580060 2.01925160
Ag 6.14460954 4.16633559 2.04006064
Ag 6.17792335 6.20114652 16.35892519
Ag 4.05001437 4.17234820 4.08941831
Ag 4.15001164 6.15197455 6.08378725
Ag 6.11222181 4.06970123 6.15949228
Ag 6.16469048 6.13220474 4.12296078
Ag 4.09237157 4.10807784 8.15294778
Ag 4.11494872 6.13570844 10.26722952
Ag 6.11369198 4.01158601 10.17606136
Ag 6.10235261 6.10860105 8.15175750
Ag 4.09868956 4.04765605 12.27887614
Ag 4.13241631 6.09529368 14.34765037
Ag 6.11768331 4.01180178 14.25063256
Ag 6.13035023 6.15701405 12.21392265
Ag 4.18089321 8.20413458 0.05675078
Ag 4.14328528 10.22119175 2.00170335
Ag 6.18796431 8.21247453 2.06494882
Ag 6.19594682 10.25420479 16.34997269
Ag 4.10308100 8.23976401 4.10070434
Ag 4.14465968 10.21979347 6.13120913
Ag 6.14048127 8.18516152 6.22129141
Ag 6.24959370 10.25479277 4.09876177
Ag 4.08091356 8.11294210 8.23846976
Ag 4.04739491 10.24491220 10.21781665
Ag 6.18754841 8.16863603 10.19588214
Ag 6.09397852 10.24780653 8.21577004
Ag 4.09212798 8.17488852 12.26270211
Ag 4.11404085 10.20811310 14.33636453
Ag 6.11738813 8.16447606 14.34016649
Ag 6.06910188 10.20069516 12.33035638
Ag 4.15829571 12.35359876 0.05732137
Ag 4.08948815 14.34785036 2.06966179
Ag 6.18694183 12.29522373 2.08869613
Ag 6.22142705 14.37796968 16.38867030
Ag 4.11947435 12.30082323 4.09936125
Ag 4.14502992 14.35568100 6.03045721
Ag 6.12778629 12.35751855 6.12636849
Ag 6.22276113 14.39430704 4.04202352
Ag 4.09432538 12.27421830 8.19040562
Ag 3.98294204 14.38600171 10.27171825
Ag 6.10056673 12.26326295 10.24927758
Ag 6.07979976 14.41431494 8.17523093
Ag 4.05572685 12.22102738 12.30700521
Ag 4.09549612 14.36878254 14.41372902
Ag 6.14966280 12.23578168 14.31330587
Ag 6.08559582 14.33502725 12.34455950
Ag 8.24335054 0.00124668 16.36758167
Ag 8.27201805 2.10915483 2.02932725
Ag 10.30691333 0.00971287 2.15236056
Ag 10.29389314 2.07200136 0.04490628
Ag 8.18283689 0.02849991 4.10257895
Ag 8.22106431 2.04808565 6.17417373
Ag 10.18376465 16.38628262 6.15487704
Ag 10.28570727 2.08776397 4.11010115
Ag 8.17697391 0.06162170 8.21003615
Ag 8.14311044 1.95910661 10.27108586
Ag 10.25957406 16.35806697 10.22893647
Ag 10.24526306 2.02505479 8.29837752
Ag 8.15366568 16.35737787 12.23371805
Ag 8.25181752 2.06850106 14.28221092
Ag 10.20227084 16.35157453 14.32042772
Ag 10.24315489 2.02755939 12.30140210
Ag 8.22092288 4.11374827 16.32282315
Ag 8.17813965 6.13533938 1.98400307
Ag 10.25386339 4.18303819 2.10603532
Ag 10.26622533 6.15209647 16.37245216
Ag 8.15613657 4.11945303 4.13211956
Ag 8.22691195 6.12774458 6.14902772
Ag 10.23697361 4.05704785 6.17197761
Ag 10.21097547 6.16593199 4.08267720
Ag 8.11665884 4.08928670 8.23108614
Ag 8.22155250 6.13588678 10.28421613
Ag 10.23896368 4.10792411 10.30217659
Ag 10.26202530 6.12234119 8.26633404
Ag 8.16699908 4.07895238 12.32730899
Ag 8.16671137 6.18379495 14.32467133
Ag 10.22087193 4.20967041 14.31788411
Ag 10.29828431 6.15642096 12.28775517
Ag 8.16596545 8.14821308 16.34174137
Ag 8.26119184 10.16691031 2.03461772
Ag 10.23658947 8.18691887 2.03106777
Ag 10.19715094 10.21039766 16.32874198
Ag 8.19352328 8.18154749 4.10996371
Ag 8.27757366 10.29311058 6.23528417
Ag 10.23343077 8.16790105 6.23895792
Ag 10.25452874 10.20505006 4.09271616
Ag 8.16739925 8.24426289 8.18933672
Ag 8.26020585 10.26067373 10.17989162
Ag 10.25843556 8.21184595 10.19653200
Ag 10.28426144 10.29036905 8.21195125
Ag 8.14379888 8.22838190 12.24466354
Ag 8.20563502 10.19624137 14.29403627
Ag 10.28414948 8.19246321 14.28400160
Ag 10.27741410 10.21616244 12.21907329
Ag 8.19531138 12.29459673 16.32690801
Ag 8.24744644 14.37449064 2.01738788
Ag 10.25424725 12.31524104 2.00959635
Ag 10.27632428 14.35815633 0.02970277
Ag 8.26706808 12.30676983 4.10111609
Ag 8.24724686 14.38668436 6.15512484
Ag 10.24272545 12.31289458 6.19234631
Ag 10.28227040 14.36028811 4.07536420
Ag 8.16645264 12.33645596 8.18123935
Ag 8.11471511 14.26520501 10.23353918
Ag 10.24819123 12.27026658 10.30157404
Ag 10.21839289 14.31027566 8.26881967
Ag 8.09727267 12.24066942 12.23131162
Ag 8.09167181 14.29979184 14.29609324
Ag 10.23269924 12.22321551 14.28422269
Ag 10.22153021 14.26365150 12.33903331
Ag 12.30362318 16.39194181 0.01276244
Ag 12.24759901 2.08986560 2.07386303
Ag 14.24663709 16.34919139 2.06873619
Ag 14.27137730 2.11198578 0.10926717
Ag 12.29789564 0.00157094 4.10150902
Ag 12.30163487 2.07064527 6.15449242
Ag 14.29634143 16.38708156 6.12949104
Ag 14.35755485 2.04190649 4.11611025
Ag 12.28745002 16.34429308 8.20170231
Ag 12.29555372 2.06181460 10.32345301
Ag 14.41094191 16.37969775 10.27253822
Ag 14.34335929 1.99614813 8.18537630
Ag 12.37023238 0.02224710 12.31040587
Ag 12.30077302 2.05766317 14.39146602
Ag 14.32657702 0.02360425 14.41163816
Ag 14.34277989 2.04073393 12.32302589
Ag 12.25912561 4.16372892 0.01418849
Ag 12.21437722 6.17889890 2.04738233
Ag 14.33956777 4.11694121 2.07497444
Ag 14.30148050 6.25081786 0.02140457
Ag 12.27434902 4.13362789 4.07090238
Ag 12.33679605 6.13073485 6.21292458
Ag 14.34421357 4.09993885 6.13292337
Ag 14.31549828 6.12864329 4.15686686
Ag 12.24036373 4.06761595 8.26015580
Ag 12.32449774 6.15228761 10.26258671
Ag 14.36264787 4.06161907 10.26498276
Ag 14.35841923 6.06314669 8.23977151
Ag 12.26762708 4.06994500 12.33505464
Ag 12.29132725 6.08833968 14.26210398
Ag 14.29945462 4.06402842 14.40391359
Ag 14.34617812 6.13400876 12.33047751
Ag 12.28060006 8.23505434 0.05252396
Ag 12.23033292 10.24562741 2.03182983
Ag 14.27732443 8.23455682 2.09167841
Ag 14.34183807 10.25719534 16.35712484
Ag 12.23452278 8.19953854 4.08227598
Ag 12.25614118 10.23410816 6.24208421
Ag 14.29408397 8.15178872 6.20424862
Ag 14.27678744 10.22440532 4.07692876
Ag 12.32761506 8.19732803 8.26328280
Ag 12.34298791 10.33647186 10.26578665
Ag 14.35222513 8.09977576 10.26223520
Ag 14.38184140 10.20394951 8.17428003
Ag 12.29959152 8.14557642 12.26969156
Ag 12.27807069 10.18046491 14.24268991
Ag 14.37484594 8.19663296 14.32124194
Ag 14.40484526 10.24925931 12.29304651
Ag 12.30255571 12.29925769 16.34261151
Ag 12.27176805 14.28080370 2.03526359
Ag 14.23300395 12.25265553 2.08625405
Ag 14.36689708 14.36186851 0.00954168
Ag 12.16196400 12.26704159 4.10339295
Ag 12.25751996 14.34375052 6.13885188
Ag 14.24981056 12.25747900 6.19182486
Ag 14.32704641 14.30661251 4.14581493
Ag 12.24605598 12.32900944 8.24404708
Ag 12.31074892 14.37720202 10.34497447
Ag 14.40100031 12.36850463 10.35171374
Ag 14.36420914 14.37087335 8.14415628
Ag 12.37264046 12.30853085 12.29977486
Ag 12.31984748 14.37705168 14.30169670
Ag 14.36439845 12.29927423 14.33731232
Ag 14.41644932 14.39519551 12.38190145
256
Lattice="16.39280000 0 0 0 16.39280000 0 0 0 16.39280000" Properties=species:S:1:pos:R:3 pbc="T T T" Frame=12
Ag 16.38671870 0.00934879 0.06880307
Ag 0.01377723 2.05926159 2.06174818
Ag 2.03762286 16.33292880 2.05521896
Ag 2.03703358 2.03253385 0.00573260
Ag 16.35835805 16.36758346 4.05719524
Ag 0.00363409 2.11184349 6.07682557
Ag 2.06590717 16.38576863 6.05968833
Ag 2.04064561 2.10711681 4.00653084
Ag 0.04483934 16.38931476 8.16555003
Ag 0.02377270 2.07010580 10.22914278
Ag 2.03292068 0.01345012 10.21185413
Ag 2.00757333 2.07980450 8.09283093
Ag 0.00833368 0.00217231 12.36229601
Ag 16.36377272 2.09692731 14.43454911
Ag 2.04471167 16.39127391 14.35400723
Ag 2.01497578 2.03406196 12.31355506
Ag 0.01931071 4.13117900 0.05171796
Ag 0.00356599 6.29133064 2.04189840
Ag 2.04879258 4.19453938 2.10396122
Ag 2.05232069 6.20015386 0.07903132
Ag 16.37176148 4.19784005 4.01758674
Ag 0.02182384 6.17444442 6.11747983
Ag 2.02406859 4.16201529 6.07973743
Ag 2.09270440 6.25322535 4.09656167
Ag 0.01188427 4.11998023 8.12649119
Ag 16.38757114 6.09209935 10.24834663
Ag 2.04647012 4.03923648 10.23278063
Ag 2.05108712 6.12330512 8.17296310
Ag 0.00024579 4.12024400 12.32207283
Ag 0.02835397 6.11208278 14.35749879
Ag 2.08221324 4.09396553 14.34733269
Ag 2.06802593 6.09130283 12.25399221
Ag 0.05089346 8.25864059 0.03807333
Ag 0.03302885 10.27877232 2.06411000
Ag 2.09027729 8.21258221 2.06409808
Ag 2.12619248 10.25757914 0.00856552
Ag 16.35215585 8.25970901 4.12553509
Ag 16.38685860 10.28364120 6.14208723
Ag 2.05713628 8.22566355 6.14329840
Ag 2.14269663 10.22945428 4.11381878
Ag 16.38157253 8.15911472 8.21136894
Ag 0.06005744 10.23738050 10.23225536
Ag 2.11709686 8.09741051 10.24694986
Ag 2.03622645 10.18689053 8.17557214
Ag 0.03927817 8.19152289 12.25470169
Ag 0.01788431 10.23690842 14.35793028
Ag 2.11134039 8.16925362 14.36319055
Ag 2.07025366 10.20781359 12.31444327
Ag 0.02971183 12.32735096 16.35335905
Ag 0.00391481 14.22336736 2.01276005
Ag 2.07638551 12.21751357 2.06614886
Ag 2.13220487 14.37380262 0.06665859
Ag 0.00198258 12.21095484 4.07024910
Ag 0.03564862 14.28613710 6.08083094
Ag 2.05982874 12.29906855 6.13646754
Ag 2.03087462 14.29977874 4.04317060
Ag 0.00344136 12.28327993 8.23641098
Ag 0.04214426 14.35527813 10.23395707
Ag 2.09454306 12.31218036 10.22160193
Ag 2.06164035 14.29229018 8.12997841
Ag 0.13150023 12.31744385 12.33831719
Ag 0.05942350 14.38414750 14.40757114
Ag 2.10164556 12.30478812 14.39426644
Ag 2.04795306 14.37733601 12.32351209
Ag 4.09428758 0.01757658 0.03510430
Ag 4.09178094 2.08778143 1.99877077
Ag 6.15291351 0.05907561 2.06297440
Ag 6.16596231 2.08603288 16.34819100
Ag 4.05146368 0.01044287 4.06848012
Ag 4.09571803 2.05034834 6.08279993
Ag 6.14746391 0.00290393 6.15699954
Ag 6.18752214 2.09632886 4.08056195
Ag 4.00080804 16.38369597 8.09920028
Ag 4.03800947 2.02639925 10.18298224
Ag 6.03277083 16.34442448 10.19006451
Ag 6.04248926 2.03699434 8.17023396
Ag 4.03787882 0.04284828 12.27782715
Ag 4.06483981 2.00242967 14.34412448
Ag 6.07333465 0.03532990 14.36292153
Ag 6.07145080 1.95432212 12.32760288
Ag 4.10483056 4.13321893 16.38037011
Ag 4.15691675 6.22372305 2.01697950
Ag 6.12154534 4.17530851 2.02953892
Ag 6.19815848 6.20855318 16.34474010
Ag 4.03807601 4.15008436 4.08301790
Ag 4.13239126 6.14340859 6.09402860
Ag 6.11508145 4.05728655 6.15203702
Ag 6.16028929 6.15163428 4.10759850
Ag 4.07256533 4.09828968 8.15904912
Ag 4.08609903 6.13294476 10.25011948
Ag 6.11000124 4.01878401 10.18597099
Ag 6.09901575 6.11983342 8.16154026
Ag 4.09364742 4.06906567 12.26584424
Ag 4.12689916 6.10119820 14.36796121
Ag 6.11397356 4.04102034 14.25330950
Ag 6.13083589 6.14559667 12.20824113
Ag 4.16167083 8.21819613 0.05497013
Ag 4.13199782 10.22422064 2.00236846
Ag 6.18789295 8.21019039 2.08403891
Ag 6.19789451 10.27717256 16.35730643
Ag 4.11226535 8.23415085 4.09858264
Ag 4.14334039 10.23115782 6.10417384
Ag 6.15007349 8.19764792 6.19356315
Ag 6.26459594 10.24907507 4.09836671
Ag 4.06261479 8.12680631 8.23338414
Ag 4.05057329 10.25025877 10.22308269
Ag 6.19327268 8.17562224 10.20702799
Ag 6.09461614 10.22900886 8.22537185
Ag 4.11227534 8.15698983 12.26278020
Ag 4.12821490 10.20017958 14.33123626
Ag 6.10781922 8.15216856 14.33850501
Ag 6.06637703 10.21690892 12.31231763
Ag 4.15678479 12.35357425 0.03110996
Ag 4.09920265 14.34536838 2.05414031
Ag 6.17019139 12.28993592 2.08257859
Ag 6.21122943 14.38400785 16.38008490
Ag 4.10918496 12.28954829 4.09878808
Ag 4.14930797 14.34475456 6.03595690
Ag 6.14957812 12.34424367 6.13565358
Ag 6.22134745 14.38873937 4.03912553
Ag 4.09228318 12.25579137 8.18341726
Ag 3.99092129 14.39457947 10.26236399
Ag 6.09782774 12.27941574 10.22527950
Ag 6.05578734 14.40602973 8.19807282
Ag 4.05309832 12.25528682 12.29553990
Ag 4.07121435 14.35908862 14.41360442
Ag 6.13199150 12.23331005 14.31870640
Ag 6.06099971 14.34339709 12.35656203
Ag 8.23770792 0.00673770 16.34844151
Ag 8.27293621 2.10476771 2.01926889
Ag 10.30092967 0.02247968 2.15210450
Ag 10.30325177 2.05599454 0.02960397
Ag 8.20270288 0.02278700 4.13156843
Ag 8.22959338 2.05668723 6.17748666
Ag 10.21856703 16.38014800 6.15051748
Ag 10.28061160 2.10088274 4.11012535
Ag 8.15471685 0.06320625 8.18896044
Ag 8.11942627 1.97010167 10.28933798
Ag 10.25487708 16.35101682 10.22392907
Ag 10.23970061 2.00516388 8.30454279
Ag 8.17279592 16.33093035 12.23338305
Ag 8.24717587 2.08388152 14.29551155
Ag 10.19324550 16.35741941 14.32494222
Ag 10.25700337 2.02336113 12.30915110
Ag 8.21420617 4.09869788 16.33606941
Ag 8.21255937 6.15580333 1.97938297
Ag 10.26104536 4.17191957 2.11402225
Ag 10.28066885 6.17976896 16.37256931
Ag 8.15863725 4.14173533 4.12455537
Ag 8.23159516 6.14074667 6.15727755
Ag 10.23325664 4.06237961 6.18416023
Ag 10.22071781 6.16746459 4.10848067
Ag 8.12485802 4.09217886 8.23381818
Ag 8.24373439 6.11611922 10.28491283
Ag 10.23933836 4.07984118 10.28965094
Ag 10.26579270 6.13702924 8.26224210
Ag 8.17484645 4.07031900 12.29936661
Ag 8.16783464 6.18298583 14.30295570
Ag 10.21494468 4.18328813 14.34937525
Ag 10.29040748 6.15582306 12.28361022
Ag 8.19237290 8.14631695 16.34398848
Ag 8.25175083 10.16758392 2.03187535
Ag 10.24191330 8.18676400 2.03142039
Ag 10.18865513 10.20349013 16.35157457
Ag 8.20180721 8.17296933 4.10505362
Ag 8.29890985 10.28413444 6.23982446
Ag 10.23061019 8.17447166 6.23384407
Ag 10.27799099 10.22441157 4.08871650
Ag 8.15276485 8.22473905 8.22265896
Ag 8.26602593 10.26911674 10.17876718
Ag 10.25348499 8.21365749 10.22372437
Ag 10.27407188 10.28593573 8.21700229
Ag 8.13130063 8.21225758 12.25902406
Ag 8.20484763 10.20772181 14.28528708
Ag 10.27337733 8.17583117 14.27588636
Ag 10.25920052 10.21071258 12.22143836
Ag 8.21813371 12.28976672 16.36312491
Ag 8.25971645 14.36460578 2.02732101
Ag 10.24662867 12.27631285 2.02164476
Ag 10.28268348 14.37033665 0.02205356
Ag 8.27602965 12.30632747 4.10680682
Ag 8.23700260 14.37806391 6.17467641
Ag 10.24430523 12.33721002 6.17658068
Ag 10.28440563 14.35295706 4.08823231
Ag 8.14653191 12.33441551 8.16594125
Ag 8.15034970 14.29170936 10.23720474
Ag 10.23517982 12.27292297 10.31265254
Ag 10.21153063 14.31139801 8.26626343
Ag 8.10422623 12.24117687 12.23214662
Ag 8.09953782 14.29747239 14.27762234
Ag 10.25954612 12.20564032 14.28834729
Ag 10.23632217 14.28988974 12.35074573
Ag 12.30468409 0.00305045 16.38819555
Ag 12.26602946 2.08855636 2.04794244
Ag 14.22898537 16.35176131 2.07540294
Ag 14.30143578 2.10892371 0.10512375
Ag 12.28606247 16.39274638 4.09421771
Ag 12.30575191 2.06249490 6.15215648
Ag 14.30383052 16.37073603 6.12666511
Ag 14.34614450 2.03274010 4.11798539
Ag 12.31632379 16.33817406 8.20635671
Ag 12.29878539 2.07992098 10.32108279
Ag 14.41262327 16.39179881 10.31175317
Ag 14.33548553 1.99093352 8.17143298
Ag 12.35326317 0.03119293 12.29353357
Ag 12.31919187 2.06589562 14.38123826
Ag 14.33906016 0.01605927 14.41046246
Ag 14.35981000 2.04507184 12.31817692
Ag 12.27002447 4.16952528 16.39261279
Ag 12.19929108 6.17459036 2.05612326
Ag 14.32818658 4.13287388 2.06930114
Ag 14.28701239 6.24276402 0.01604063
Ag 12.27986780 4.12779164 4.06698820
Ag 12.32782092 6.13789746 6.20556064
Ag 14.33831426 4.11795622 6.12652921
Ag 14.30393388 6.13913908 4.13782736
Ag 12.24477935 4.06014235 8.24112182
Ag 12.35368645 6.14641118 10.26194313
Ag 14.35638817 4.04393829 10.26150617
Ag 14.36290074 6.04177533 8.24966778
Ag 12.26476959 4.06928914 12.32892790
Ag 12.27698306 6.09173806 14.26730993
Ag 14.30484579 4.07253460 14.38916072
Ag 14.34738779 6.14299383 12.33182760
Ag 12.24368038 8.22955447 0.02893602
Ag 12.23483342 10.24968878 2.03936130
Ag 14.28759495 8.21885263 2.09011659
Ag 14.35306673 10.26875603 16.37447821
Ag 12.23995646 8.21624213 4.10007923
Ag 12.26567209 10.23533320 6.20898245
Ag 14.29110150 8.15584842 6.19082718
Ag 14.26409865 10.23059341 4.08256106
Ag 12.30559612 8.19699214 8.26716219
Ag 12.34138406 10.32280232 10.26056535
Ag 14.33129960 8.13163322 10.26138569
Ag 14.37331190 10.18210358 8.19874878
Ag 12.30429656 8.14223440 12.28615774
Ag 12.27641347 10.20234144 14.25198417
Ag 14.37258887 8.18236664 14.35022207
Ag 14.40796187 10.24463937 12.27869753
Ag 12.30569964 12.28884124 16.35612416
Ag 12.26253353 14.29012337 2.01531538
Ag 14.21972989 12.24611322 2.09563863
Ag 14.37015138 14.36527906 0.02884994
Ag 12.16678025 12.28777617 4.11966437
Ag 12.26831811 14.33626173 6.14356244
Ag 14.25872063 12.25676839 6.17405385
Ag 14.32423282 14.31315569 4.13710025
Ag 12.24264937 12.30902305 8.25046633
Ag 12.30528379 14.38263392 10.30928807
Ag 14.39315703 12.36056266 10.32573058
Ag 14.35653474 14.36074361 8.15763457
Ag 12.39233928 12.31128716 12.27227733
Ag 12.30428021 14.36513507 14.31559615
Ag 14.34762620 12.31672414 14.34418057
Ag 14.41449319 14.38338083 12.38221718
256
Lattice="16.39280000 0 0 0 16.39280000 0 0 0 16.39280000" Properties=species:S:1:pos:R:3 pbc="T T T" Frame=13
Ag 16.38105920 0.01470344 0.07964094
Ag 0.01130002 2.04292306 2.07357104
Ag 2.01220093 16.33118609 2.07023603
Ag 2.04021416 2.00806237 0.00701978
Ag 16.36938001 16.38210637 4.05581868
Ag 16.38836427 2.10101414 6.07972875
Ag 2.04205832 0.02218704 6.07090444
Ag 2.04333908 2.11057669 4.02402914
Ag 0.04196536 16.38685125 8.16855863
Ag 0.03790521 2.07123600 10.23733720
Ag 2.03325301 0.02335226 10.22318155
Ag 2.02175179 2.06690890 8.09561150
Ag 0.01584828 0.00715115 12.37750211
Ag 16.35237696 2.07075192 14.41737553
Ag 2.03884065 0.00132218 14.35368004
Ag 2.01220351 2.03768770 12.32181429
Ag 16.38507101 4.13323287 0.05742324
Ag 16.38021388 6.26916266 2.05319247
Ag 2.05627853 4.20706051 2.09247220
Ag 2.05702003 6.18730401 0.05545586
Ag 16.36441804 4.22795606 4.01140365
Ag 0.03221270 6.20756527 6.10786261
Ag 2.02066714 4.12851602 6.10470870
Ag 2.09065108 6.24030617 4.11983330
Ag 0.01980782 4.10419643 8.12063697
Ag 0.00128142 6.08279521 10.23783320
Ag 2.03432589 4.02164121 10.21961149
Ag 2.05502662 6.11579960 8.17537096
Ag 0.00377479 4.09588783 12.32187195
Ag 0.02215554 6.13383599 14.36914816
Ag 2.09540800 4.07242558 14.34494790
Ag 2.05326301 6.08695027 12.27302647
Ag 0.07242281 8.25692492 0.04049885
Ag 0.05499704 10.29440288 2.04426683
Ag 2.08682326 8.19299963 2.07468040
Ag 2.13592762 10.24451173 16.38852769
Ag 16.33761185 8.25724999 4.13245203
Ag 16.36778065 10.29799543 6.11256179
Ag 2.06159045 8.23588628 6.16011949
Ag 2.14595163 10.22619597 4.12387771
Ag 0.01813841 8.15273770 8.23847113
Ag 0.07286676 10.22923360 10.23118958
Ag 2.12766571 8.10084642 10.24252106
Ag 2.04066184 10.16959136 8.16137858
Ag 0.01500078 8.20520938 12.25478697
Ag 16.38502276 10.23226589 14.36576949
Ag 2.11213561 8.14828800 14.37199846
Ag 2.07787372 10.22409576 12.31390916
Ag 0.01621868 12.31990457 16.37496608
Ag 16.36926799 14.20861928 2.02335991
Ag 2.09695051 12.21123082 2.05592492
Ag 2.10180561 14.37211432 0.05958827
Ag 0.00743234 12.22844001 4.06226761
Ag 0.04130428 14.30274792 6.08191288
Ag 2.03867895 12.30303045 6.11482777
Ag 2.02417250 14.33560254 4.04588883
Ag 16.36912341 12.29897491 8.24246603
Ag 0.04731668 14.37026171 10.23756707
Ag 2.10852983 12.33611587 10.21459269
Ag 2.06379998 14.30135027 8.12645976
Ag 0.14271876 12.32784834 12.33728384
Ag 0.07482166 14.39443350 14.40385026
Ag 2.09534162 12.29359948 14.37404466
Ag 2.05655978 14.39066859 12.31557938
Ag 4.09534528 0.00864833 0.04974240
Ag 4.11017203 2.07555805 2.01417205
Ag 6.14268203 0.04588071 2.06414004
Ag 6.16921285 2.09359184 16.37206819
Ag 4.05542386 0.01752580 4.07112694
Ag 4.11081918 2.04703226 6.07095044
Ag 6.13548427 0.00065971 6.16752853
Ag 6.16686533 2.07362528 4.06383919
Ag 3.99877863 16.38250114 8.11857006
Ag 4.06891113 2.02378406 10.20007076
Ag 6.04816739 16.33715104 10.20337824
Ag 6.03451574 2.03418536 8.16766165
Ag 4.06299766 0.03098904 12.27112980
Ag 4.05108453 2.02993512 14.33097112
Ag 6.04671621 0.02336321 14.34924536
Ag 6.05130238 1.98748928 12.29886087
Ag 4.13937865 4.14577140 16.37784494
Ag 4.14614764 6.20598842 2.01969263
Ag 6.10274944 4.17811960 2.01843154
Ag 6.21257700 6.20415125 16.33479579
Ag 4.03618807 4.12487919 4.07465912
Ag 4.11048470 6.13792939 6.10945396
Ag 6.12119546 4.04915106 6.14249949
Ag 6.15577203 6.17273952 4.09216911
Ag 4.04942729 4.08870449 8.16479707
Ag 4.06177577 6.12212629 10.22905198
Ag 6.10593245 4.03131919 10.20475715
Ag 6.10142009 6.13181922 8.17601599
Ag 4.08804328 4.08854517 12.25223834
Ag 4.11825937 6.11171858 14.38375301
Ag 6.11320279 4.07619269 14.26307953
Ag 6.13251575 6.12938420 12.20894446
Ag 4.13981432 8.23086386 0.04417871
Ag 4.12609290 10.23231879 2.01072018
Ag 6.18849238 8.20795201 2.09924953
Ag 6.19897049 10.29505173 16.36869738
Ag 4.12965456 8.22604149 4.09583440
Ag 4.14211628 10.24466424 6.08427049
Ag 6.16199762 8.21123472 6.16104708
Ag 6.27346523 10.24490344 4.10185426
Ag 4.04964459 8.14710512 8.22101464
Ag 4.05630299 10.24981293 10.23071757
Ag 6.19105869 8.18502027 10.22044883
Ag 6.09937104 10.21208814 8.23076476
Ag 4.13123327 8.13953319 12.26523454
Ag 4.13767101 10.19528187 14.33145457
Ag 6.10099400 8.14545881 14.33289529
Ag 6.07059252 10.23236301 12.28529285
Ag 4.15537143 12.34634995 0.00343692
Ag 4.11615085 14.34243901 2.04224863
Ag 6.15763924 12.28497511 2.07320500
Ag 6.19592349 14.38725799 16.37579392
Ag 4.10321671 12.27702657 4.09462845
Ag 4.14757681 14.33414105 6.04729599
Ag 6.17464665 12.32662441 6.14378418
Ag 6.21651594 14.37986844 4.03994852
Ag 4.09007802 12.24229153 8.17288094
Ag 4.00720541 14.39650847 10.25030215
Ag 6.09321676 12.29826489 10.20284489
Ag 6.03608869 14.38928695 8.21842747
Ag 4.05254733 12.29547730 12.28501043
Ag 4.05117873 14.34956812 14.40651444
Ag 6.11271947 12.23660105 14.32617627
Ag 6.03448749 14.35180863 12.35916898
Ag 8.22936874 0.01522143 16.33388408
Ag 8.26759360 2.09800990 2.01199028
Ag 10.28858739 0.03511425 2.13941976
Ag 10.30794735 2.04131979 0.00917439
Ag 8.22458615 0.01951407 4.15633766
Ag 8.23397933 2.06679842 6.17935519
Ag 10.26019083 16.37770402 6.14947433
Ag 10.27048776 2.11120254 4.11219031
Ag 8.13314337 0.05613564 8.17164193
Ag 8.09839275 1.98711990 10.30537169
Ag 10.24816347 16.34489848 10.22677361
Ag 10.23458174 1.98904902 8.30270424
Ag 8.19000078 16.30587428 12.23871221
Ag 8.23782460 2.09226070 14.31268222
Ag 10.19042538 16.36557813 14.32846294
Ag 10.26897240 2.01831511 12.31613304
Ag 8.20573897 4.08651829 16.35310955
Ag 8.24597706 6.17506432 1.98128611
Ag 10.26181333 4.15421610 2.11263434
Ag 10.28886796 6.20657826 16.37003205
Ag 8.16624671 4.16114365 4.11401068
Ag 8.23126568 6.15327731 6.17066238
Ag 10.23127668 4.07285767 6.19716281
Ag 10.23228514 6.16893441 4.13957280
Ag 8.14102864 4.09247428 8.23428181
Ag 8.26016575 6.09804363 10.28090283
Ag 10.23761781 4.05097575 10.27596209
Ag 10.26679583 6.15028330 8.25452816
Ag 8.18251550 4.06341769 12.26706208
Ag 8.17108312 6.17746799 14.27739627
Ag 10.21111503 4.14708030 14.37866048
Ag 10.27400022 6.15440949 12.27527722
Ag 8.22175752 8.15303501 16.34667359
Ag 8.23820431 10.17713602 2.02899620
Ag 10.24378341 8.18695503 2.03378727
Ag 10.18582361 10.19934767 16.37354673
Ag 8.21323564 8.16586445 4.10433758
Ag 8.30894443 10.27119282 6.23452256
Ag 10.23124235 8.18181385 6.22455013
Ag 10.29283247 10.24267139 4.09027341
Ag 8.14485457 8.19845007 8.25343395
Ag 8.25903137 10.27607632 10.18225663
Ag 10.24903582 8.21285153 10.25325107
Ag 10.26454868 10.27894077 8.22479715
Ag 8.12562201 8.19556740 12.27364062
Ag 8.20196666 10.21920886 14.27754217
Ag 10.25803051 8.15971218 14.27151027
Ag 10.24013964 10.20596296 12.22940279
Ag 8.24081469 12.28639426 0.00719375
Ag 8.26893232 14.35533494 2.03851376
Ag 10.23602421 12.23668501 2.03163409
Ag 10.28449825 14.37920541 0.00660626
Ag 8.28099898 12.30536105 4.11198591
Ag 8.22057381 14.36778875 6.19223573
Ag 10.24623692 12.35932906 6.16193094
Ag 10.27980014 14.34676566 4.10269174
Ag 8.12704389 12.33061909 8.15613542
Ag 8.18451074 14.32338952 10.24206309
Ag 10.22417116 12.28272842 10.31966750
Ag 10.20713492 14.31645638 8.25969134
Ag 8.11609769 12.24331283 12.23843038
Ag 8.11749297 14.29681545 14.26399161
Ag 10.28450753 12.19557099 14.29429394
Ag 10.25044396 14.31863471 12.35620205
Ag 12.30178709 0.00674586 16.37177881
Ag 12.28732735 2.08733866 2.02569846
Ag 14.22273466 16.35713783 2.08130984
Ag 14.33551898 2.10046645 0.09493278
Ag 12.27541937 16.39164932 4.09293690
Ag 12.30652337 2.05238095 6.15111500
Ag 14.31814666 16.35553948 6.12430774
Ag 14.33271796 2.02746079 4.11454103
Ag 12.34209134 16.33729400 8.21256223
Ag 12.30406010 2.09039489 10.31089559
Ag 14.41149515 0.01111854 10.34319213
Ag 14.32997252 1.99059875 8.16038251
Ag 12.32997194 0.03714122 12.28115196
Ag 12.33177305 2.07194398 14.36968090
Ag 14.35510409 0.01115300 14.40819512
Ag 14.38009446 2.05151850 12.31590989
Ag 12.28187273 4.17133808 16.38071966
Ag 12.19761454 6.17159153 2.06650578
Ag 14.31619610 4.15307882 2.06160969
Ag 14.27712925 6.22766983 0.01048913
Ag 12.28797403 4.12129166 4.07116788
Ag 12.31001408 6.14376718 6.19667933
Ag 14.33217738 4.13227400 6.12192047
Ag 14.29287417 6.15669135 4.11271953
Ag 12.25490268 4.05297858 8.22025120
Ag 12.37606354 6.13322003 10.26208400
Ag 14.34972237 4.02791388 10.25859568
Ag 14.36486854 6.02890428 8.25376872
Ag 12.26654715 4.06956248 12.31955958
Ag 12.26797232 6.10465631 14.28373422
Ag 14.31601133 4.08666713 14.37381500
Ag 14.35189760 6.14811713 12.33111882
Ag 12.21236513 8.22439696 16.38992882
Ag 12.24060756 10.25254565 2.04392456
Ag 14.29978608 8.20404259 2.08483468
Ag 14.36252191 10.27776920 0.00116522
Ag 12.24798036 8.22792943 4.12266315
Ag 12.27533570 10.23560334 6.17233115
Ag 14.29285409 8.16341169 6.17489310
Ag 14.25332645 10.23891154 4.09478949
Ag 12.28330462 8.19582045 8.26750227
Ag 12.34098139 10.29974862 10.25513749
Ag 14.31638880 8.17092858 10.26066339
Ag 14.36280906 10.16805443 8.22764016
Ag 12.31232411 8.14678893 12.29939039
Ag 12.28063050 10.22675697 14.26798799
Ag 14.36873758 8.17027641 14.37819365
Ag 14.41067826 10.23880867 12.26561105
Ag 12.30504639 12.27616068 16.36708324
Ag 12.25614779 14.30329249 2.00012325
Ag 14.21723840 12.24344377 2.10134044
Ag 14.36900193 14.36354112 0.04575109
Ag 12.18419333 12.30734041 4.13593320
Ag 12.27888353 14.32964958 6.15152856
Ag 14.27348765 12.25794747 6.15462046
Ag 14.32070214 14.31629097 4.12300108
Ag 12.24827607 12.29261341 8.25626165
Ag 12.30250306 14.38396102 10.27086975
Ag 14.38817392 12.34998785 10.29137322
Ag 14.35045083 14.34715212 8.17579530
Ag 12.40339545 12.31418304 12.25061497
Ag 12.28762961 14.35128491 14.33358750
Ag 14.33456609 12.33201209 14.35085512
Ag 14.41218907 14.36902838 12.37765588
256
Lattice="16.39280000 0 0 0 16.39280000 0 0 0 16.39280000" Properties=species:S:1:pos:R:3 pbc="T T T" Frame=14
Ag 16.37370575 0.01770019 0.08839381
Ag 0.00523651 2.03086335 2.08490654
Ag 1.98960756 16.33701600 2.08443873
Ag 2.04426701 1.99088179 0.01212518
Ag 16.37885993 0.00207367 4.05582638
Ag 16.37841562 2.08574872 6.08157398
Ag 2.01511177 0.04921444 6.08168319
Ag 2.04414627 2.10953602 4.04602968
Ag 0.03486829 16.38419369 8.16899652
Ag 0.04688691 2.06787497 10.24359626
Ag 2.03148761 0.03439312 10.23482350
Ag 2.03808996 2.05205582 8.10231568
Ag 0.02346301 0.01442914 12.38712540
Ag 16.34464259 2.04446530 14.39905366
Ag 2.03571240 0.00715169 14.35829598
Ag 2.01105601 2.04273806 12.32827993
Ag 16.35961330 4.13654570 0.06181553
Ag 16.36250050 6.24181465 2.06489842
Ag 2.06309464 4.21463895 2.07223472
Ag 2.06294818 6.17073178 0.02633082
Ag 16.35939874 4.24972415 4.01288359
Ag 0.03742972 6.23772128 6.10171962
Ag 2.01953301 4.09445018 6.12623440
Ag 2.08420923 6.22477667 4.14020023
Ag 0.02476683 4.08518622 8.11977301
Ag 0.00874856 6.07571326 10.22991146
Ag 2.02378087 4.01069440 10.20684346
Ag 2.05679977 6.10872298 8.17686459
Ag 0.00641113 4.07046576 12.32232759
Ag 0.01585934 6.15708027 14.38173498
Ag 2.10246143 4.05415725 14.34654568
Ag 2.03784056 6.08608100 12.29616247
Ag 0.08735736 8.25296936 0.03921303
Ag 0.07043851 10.30280014 2.02440142
Ag 2.08164459 8.17978697 2.08599555
Ag 2.13996109 10.23299971 16.37301704
Ag 16.32734912 8.25476791 4.13577670
Ag 16.34855481 10.30657916 6.08905205
Ag 2.06518151 8.24192786 6.17421556
Ag 2.13765265 10.22317136 4.12988327
Ag 0.04468905 8.14602535 8.26222407
Ag 0.08390425 10.22291782 10.23245266
Ag 2.12533418 8.11328149 10.24121182
Ag 2.04575154 10.16261265 8.14948317
Ag 16.38653486 8.21369454 12.25898067
Ag 16.36415150 10.22906342 14.37132104
Ag 2.10886717 8.13008721 14.37624248
Ag 2.08515592 10.23773137 12.31290874
Ag 0.00345987 12.30666630 0.00329136
Ag 16.34170083 14.20330625 2.04031681
Ag 2.11819487 12.21452071 2.04352535
Ag 2.06417427 14.36517163 0.04999977
Ag 0.00974073 12.25008484 4.05730093
Ag 0.03962264 14.32134985 6.08743401
Ag 2.02087782 12.30246244 6.09493515
Ag 2.02031573 14.36705745 4.05051693
Ag 16.34464189 12.31258852 8.24209730
Ag 0.05105685 14.38460489 10.24322942
Ag 2.11457080 12.35446232 10.20842119
Ag 2.06499368 14.31425459 8.12379038
Ag 0.14265417 12.33550194 12.33314141
Ag 0.08493187 14.39911614 14.40096557
Ag 2.08831896 12.28105448 14.35585589
Ag 2.06646140 14.40269793 12.30748917
Ag 4.09749792 0.00132343 0.06185915
Ag 4.12558998 2.06481512 2.03147770
Ag 6.13866123 0.03110561 2.06180134
Ag 6.17125835 2.09771096 0.00329534
Ag 4.06509894 0.02413475 4.07168529
Ag 4.12013196 2.04501110 6.06037240
Ag 6.12308227 16.39228317 6.17095457
Ag 6.14683218 2.05100558 4.04754278
Ag 3.99981175 16.38288964 8.13995913
Ag 4.09619403 2.02131475 10.21867881
Ag 6.06933489 16.33523189 10.22103814
Ag 6.03436102 2.03015020 8.16614522
Ag 4.08375965 0.01513809 12.26718703
Ag 4.03950192 2.06044732 14.32257573
Ag 6.03042052 0.01053684 14.33632594
Ag 6.04030578 2.02445939 12.26801317
Ag 4.16880328 4.15348668 16.37730073
Ag 4.13355951 6.18646771 2.02558710
Ag 6.09253679 4.17581060 2.00989095
Ag 6.22174267 6.19148588 16.33128656
Ag 4.04446851 4.10056475 4.06680190
Ag 4.08842329 6.13477721 6.12829458
Ag 6.12969092 4.04746010 6.13179037
Ag 6.15122946 6.19121720 4.07913912
Ag 4.02792726 4.07919781 8.16959157
Ag 4.04428927 6.10490448 10.20663541
Ag 6.10199817 4.04934130 10.22699059
Ag 6.10754008 6.14300582 8.19287310
Ag 4.08103812 4.10590862 12.23978814
Ag 4.10713549 6.12565207 14.39304394
Ag 6.11646634 4.11301291 14.27740821
Ag 6.13477813 6.10989478 12.21404943
Ag 4.11970967 8.23930097 0.02840155
Ag 4.12613604 10.24267723 2.02548488
Ag 6.18907075 8.20587373 2.10626816
Ag 6.19939813 10.30473960 16.38277365
Ag 4.15121090 8.21609337 4.09313158
Ag 4.14251742 10.25890206 6.07373211
Ag 6.17506188 8.22406691 6.12852164
Ag 6.27613180 10.24355601 4.10820538
Ag 4.04561502 8.17130298 8.20220144
Ag 4.06340039 10.24489450 10.23994887
Ag 6.18015463 8.19422054 10.23636096
Ag 6.10746258 10.19784458 8.23067246
Ag 4.14613987 8.12375562 12.26937886
Ag 4.14203305 10.19378372 14.33407927
Ag 6.09902135 8.14575450 14.32491531
Ag 6.08085652 10.24711303 12.25263785
Ag 4.15206770 12.33294305 16.36993481
Ag 4.13586697 14.33884437 2.03455805
Ag 6.15022481 12.28124368 2.06207446
Ag 6.17908881 14.38670122 16.37474818
Ag 4.10249409 12.26668910 4.08781119
Ag 4.13973246 14.32422263 6.06295948
Ag 6.19865661 12.30573775 6.14870800
Ag 6.20912779 14.36831750 4.04527557
Ag 4.08686019 12.23343132 8.15816837
Ag 4.02902909 14.39301762 10.23619792
Ag 6.08880855 12.31891689 10.18507688
Ag 6.02276651 14.36625922 8.23380767
Ag 4.05441205 12.33670636 12.27607839
Ag 4.03509603 14.34187817 14.39420048
Ag 6.09577444 12.24640804 14.33379990
Ag 6.01139315 14.35820812 12.35252050
Ag 8.21734968 0.02454023 16.32517048
Ag 8.25612891 2.08874640 2.00893578
Ag 10.27143027 0.04645590 2.11613097
Ag 10.30792563 2.02934181 16.37905019
Ag 8.24553066 0.01821729 4.17578803
Ag 8.23385529 2.07695897 6.17897778
Ag 10.30338136 16.37826237 6.15325924
Ag 10.25729784 2.11813031 4.11571515
Ag 8.11469563 0.04229137 8.16028562
Ag 8.08249865 2.00549469 10.31626489
Ag 10.24039887 16.34225008 10.23562073
Ag 10.23019447 1.97648852 8.29289930
Ag 8.20201802 16.28817155 12.25015123
Ag 8.22215144 2.09324385 14.32951455
Ag 10.19445151 16.37646877 14.33069495
Ag 10.27664720 2.01316216 12.32204451
Ag 8.19710419 4.08025194 16.37344232
Ag 8.27488343 6.19013673 1.98934651
Ag 10.25776933 4.13252919 2.10164233
Ag 10.28941171 6.22560179 16.36498731
Ag 8.17619352 4.17609187 4.10107396
Ag 8.22493688 6.16418158 6.18795375
Ag 10.23136190 4.08699599 6.20971622
Ag 10.24586316 6.16932165 4.17209904
Ag 8.16184348 4.09005594 8.23302307
Ag 8.26860364 6.08363883 10.27253604
Ag 10.23552653 4.02423568 10.26101361
Ag 10.26610155 6.16061606 8.24543864
Ag 8.18972293 4.05777555 12.23654769
Ag 8.17673641 6.16581914 14.25199890
Ag 10.21044243 4.10670279 14.40220800
Ag 10.25351310 6.14957736 12.26461730
Ag 8.24855989 8.16750055 16.34803899
Ag 8.22144774 10.19278027 2.02816680
Ag 10.24404417 8.18953648 2.04076577
Ag 10.18911573 10.19838633 16.39135356
Ag 8.22840249 8.16190905 4.10712755
Ag 8.30790420 10.25503631 6.22066714
Ag 10.23463100 8.19035120 6.21273847
Ag 10.29739236 10.25784172 4.09694532
Ag 8.14517311 8.16844519 8.27818143
Ag 8.23947447 10.28084739 10.19040856
Ag 10.24555078 8.20877309 10.28263952
Ag 10.25698385 10.27052972 8.23346554
Ag 8.12589599 8.18032624 12.28626041
Ag 8.19651299 10.23012211 14.27300674
Ag 10.23952401 8.14819358 14.26969070
Ag 10.22305355 10.20274771 12.24271770
Ag 8.26049843 12.28626620 0.03947440
Ag 8.27449228 14.34801348 2.04962553
Ag 10.22625596 12.20273037 2.04014374
Ag 10.28029262 14.38315010 16.37892577
Ag 8.28023720 12.30360675 4.11612683
Ag 8.19956309 14.35870906 6.20596420
Ag 10.24796705 12.37545100 6.15220990
Ag 10.26961191 14.34325323 4.11586176
Ag 8.11168884 12.32534765 8.15462851
Ag 8.21298109 14.35495034 10.24679234
Ag 10.21704021 12.29835490 10.32189575
Ag 10.20620040 14.32445018 8.24850478
Ag 8.13039394 12.24924190 12.24897665
Ag 8.14205757 14.29586223 14.25794389
Ag 10.30455374 12.19480428 14.30134538
Ag 10.26526219 14.34558269 12.35480489
Ag 12.29702312 0.01040325 16.35707961
Ag 12.30866635 2.08649213 2.00836871
Ag 14.22819673 16.36483984 2.08555762
Ag 14.36999061 2.08803033 0.07911552
Ag 12.26641445 16.39097482 4.09666927
Ag 12.30404992 2.04119481 6.15095436
Ag 14.33783763 16.34214693 6.12219009
Ag 14.31884571 2.02704330 4.10662633
Ag 12.36275306 16.34242856 8.21989397
Ag 12.31073770 2.09100849 10.29360979
Ag 14.40828351 0.02233869 10.36412576
Ag 14.32861099 1.99487709 8.15330439
Ag 12.30407551 0.03859749 12.27493508
Ag 12.33997190 2.07516251 14.35754806
Ag 14.37115587 0.00708505 14.40416581
Ag 14.39993069 2.05880706 12.31663123
Ag 12.29327293 4.16826439 16.37244857
Ag 12.20759112 6.17081202 2.07739423
Ag 14.30434609 4.17410267 2.05241344
Ag 14.27212988 6.20772585 0.00623842
Ag 12.29723602 4.11400837 4.08276941
Ag 12.28679815 6.14860700 6.18731015
Ag 14.32740528 4.14266426 6.11814579
Ag 14.28210249 6.17962664 4.08557944
Ag 12.26882508 4.04700618 8.19910455
Ag 12.38891731 6.11472555 10.26316067
Ag 14.34518534 4.01491654 10.25605452
Ag 14.36503063 6.02699304 8.25097055
Ag 12.27190517 4.07244246 12.30935740
Ag 12.26365679 6.12352551 14.30683633
Ag 14.33199231 4.10518495 14.35863977
Ag 14.35985884 6.14930867 12.32817155
Ag 12.19200889 8.22159698 16.35434399
Ag 12.24846153 10.25135074 2.04529919
Ag 14.31144255 8.19329438 2.07511330
Ag 14.36871315 10.28207880 0.02173047
Ag 12.25729682 8.23308962 4.14563298
Ag 12.28337221 10.23631950 6.13919413
Ag 14.29899019 8.17339471 6.16093352
Ag 14.24714881 10.24845550 4.10918927
Ag 12.26267941 8.19363222 8.26322150
Ag 12.33856349 10.27025316 10.25183894
Ag 14.30889404 8.21096513 10.25985085
Ag 14.35238619 10.16273261 8.25489534
Ag 12.32223904 8.15849475 12.30978785
Ag 12.29096765 10.24971141 14.28832166
Ag 14.36266249 8.16280541 14.40324778
Ag 14.41195694 10.23450868 12.25599647
Ag 12.30013960 12.26264514 16.37640856
Ag 12.25077331 14.31799515 1.99143231
Ag 14.22494401 12.24515025 2.10374940
Ag 14.36326354 14.35737826 0.05780072
Ag 12.21265933 12.32513239 4.14846241
Ag 12.29007217 14.32479452 6.16315840
Ag 14.29298788 12.26184544 6.13673013
Ag 14.31700648 14.31691782 4.10489946
Ag 12.26109329 12.27958904 8.25917289
Ag 12.30255866 14.38082811 10.23401964
Ag 14.38666023 12.33706354 10.25287628
Ag 14.34699493 14.33205705 8.19644823
Ag 12.40458996 12.31690765 12.23513862
Ag 12.27277687 14.33751919 14.35320151
Ag 14.32699468 12.34381171 14.35724598
Ag 14.40918562 14.35417182 12.36828905
256
Lattice="16.39280000 0 0 0 16.39280000 0 0 0 16.39280000" Properties=species:S:1:pos:R:3 pbc="T T T" Frame=15
Ag 16.36520074 0.01656288 0.09441702
Ag 16.38918375 2.02675396 2.09561749
Ag 1.97363347 16.34889719 2.09479519
Ag 2.04844667 1.98313526 0.02137945
Ag 16.38376334 0.01187136 4.05821583
Ag 16.36560297 2.06833988 6.08229841
Ag 1.99005116 0.07138637 6.09147310
Ag 2.04222699 2.10531443 4.06887656
Ag 0.02335876 16.38204052 8.16870784
Ag 0.04894875 2.05914894 10.24659359
Ag 2.02947713 0.04542560 10.24623228
Ag 2.05465092 2.03517728 8.11372949
Ag 0.03031636 0.02179625 12.38916273
Ag 16.34315154 2.02192557 14.38290284
Ag 2.03755994 0.01574499 14.36737834
Ag 2.01355133 2.04767815 12.33152686
Ag 16.33911376 4.13977665 0.06339642
Ag 16.34683861 6.21376959 2.07326416
Ag 2.06797210 4.21448389 2.04598099
Ag 2.06853313 6.15107928 16.38892586
Ag 16.35680200 4.25942116 4.02306257
Ag 0.03665557 6.26072689 6.10138670
Ag 2.02017390 4.06321014 6.14145203
Ag 2.07530795 6.20748574 4.15611477
Ag 0.02513601 4.06482206 8.12338531
Ag 0.01585399 6.07071517 10.22641798
Ag 2.01643065 4.00682730 10.19674130
Ag 2.05520541 6.10290462 8.17675588
Ag 0.00879364 4.04851819 12.32359575
Ag 0.00971072 6.17839687 14.39360687
Ag 2.10043073 4.04222710 14.35331858
Ag 2.02221258 6.08888566 12.32010032
Ag 0.09449009 8.24557388 0.03598587
Ag 0.07913087 10.30312214 2.00856763
Ag 2.07520232 8.17202971 2.09728638
Ag 2.13760439 10.22491612 16.35647276
Ag 16.32284991 8.25346123 4.13298232
Ag 16.33118402 10.30827724 6.07509668
Ag 2.06738906 8.24322683 6.18175743
Ag 2.11841376 10.21935828 4.13038787
Ag 0.06455662 8.14012276 8.28019935
Ag 0.09352063 10.22074512 10.23559304
Ag 2.11261084 8.13227680 10.24498751
Ag 2.04982139 10.16999641 8.14143010
Ag 16.37087327 8.21612401 12.26704223
Ag 16.34938407 10.22789883 14.37388118
Ag 2.10119398 8.11875721 14.37318409
Ag 2.09194127 10.24700342 12.31197535
Ag 16.38570434 12.29012184 0.02070145
Ag 16.31757685 14.20907766 2.06157887
Ag 2.13764030 12.22830644 2.03009176
Ag 2.02431101 14.35409923 0.04088467
Ag 0.00942127 12.27343508 4.05440389
Ag 0.03046626 14.34048339 6.09662630
Ag 2.00718367 12.29869139 6.07921959
Ag 2.02081146 14.39088279 4.05700505
Ag 16.32747588 12.32212902 8.23418549
Ag 0.05257957 14.39734595 10.25071016
Ag 2.11201176 12.36550567 10.20252227
Ag 2.06467614 14.32942004 8.12184556
Ag 0.13080195 12.34002660 12.32510467
Ag 0.08772192 14.39658800 14.39889849
Ag 2.08010003 12.26794374 14.34175024
Ag 2.07613224 14.41317818 12.29918493
Ag 4.09893454 16.38869629 0.06948026
Ag 4.13448501 2.05615028 2.04777680
Ag 6.14301207 0.01435394 2.05664439
Ag 6.17051891 2.09677303 0.02392805
Ag 4.07783312 0.02758152 4.07116112
Ag 4.12315522 2.04393539 6.05363777
Ag 6.11066999 16.39097767 6.16703552
Ag 6.13228409 2.03087274 4.03380030
Ag 4.00457946 16.38492010 8.16124549
Ag 4.11599937 2.01938945 10.23649799
Ag 6.09584135 16.33823473 10.24067742
Ag 6.04199130 2.02704118 8.16669167
Ag 4.09678875 16.39232151 12.26661942
Ag 4.03493278 2.08906712 14.31929524
Ag 6.02493645 0.00057377 14.32523686
Ag 6.03916300 2.06173247 12.24283066
Ag 4.18926029 4.15484305 16.37817667
Ag 4.11996307 6.16883936 2.03290522
Ag 6.09387400 4.16950515 2.00704718
Ag 6.22708651 6.17562760 16.33484911
Ag 4.06130047 4.08071800 4.06122227
Ag 4.06993439 6.13302669 6.14853337
Ag 6.13948305 4.05318758 6.12093352
Ag 6.14759090 6.20301637 4.07037349
Ag 4.01300830 4.06921551 8.17293028
Ag 4.03386284 6.08526521 10.18560128
Ag 6.09890909 4.07219188 10.24636643
Ag 6.11521967 6.15194044 8.20991764
Ag 4.07159807 4.12104729 12.23066544
Ag 4.09519403 6.14094424 14.39467089
Ag 6.12404626 4.14686771 14.29365109
Ag 6.13719401 6.08989689 12.22179745
Ag 4.10485897 8.24147003 0.01217320
Ag 4.13152562 10.25192725 2.04423345
Ag 6.18959991 8.20418888 2.10222088
Ag 6.19919340 10.30465707 0.00457010
Ag 4.17173569 8.20579604 4.09131810
Ag 4.14489643 10.27197848 6.07277839
Ag 6.18811804 8.23431877 6.10077387
Ag 6.27286363 10.24570763 4.11546123
Ag 4.05212173 8.19620041 8.17953352
Ag 4.07058690 10.23770613 10.24929886
Ag 6.16149238 8.20059295 10.25387717
Ag 6.11817355 10.18695815 8.22480243
Ag 4.15457063 8.11053947 12.27419392
Ag 4.14214765 10.19576505 14.33568536
Ag 6.10349997 8.15277138 14.31664438
Ag 6.09555206 10.26170335 12.21908279
Ag 4.14506763 12.31515503 16.34784803
Ag 4.15363480 14.33445949 2.03088554
Ag 6.14845547 12.27970997 2.05068780
Ag 6.16392174 14.38174249 16.37545442
Ag 4.10707669 12.26123693 4.07981817
Ag 4.12651241 14.31531491 6.08105950
Ag 6.21740997 12.28297595 6.14898139
Ag 6.20015319 14.35495986 4.05538817
Ag 4.08212967 12.22849371 8.14006289
Ag 4.05238950 14.38607241 10.22099079
Ag 6.08607653 12.33911399 10.17470569
Ag 6.01761537 14.34097526 8.24151134
Ag 4.05824075 12.37322055 12.26895717
Ag 4.02230072 14.33738008 14.37955861
Ag 6.08460648 12.26222633 14.33947323
Ag 5.99791536 14.36093246 12.33808573
Ag 8.20153567 0.03234614 16.32261684
Ag 8.23927065 2.07711895 2.01108837
Ag 10.25189481 0.05561968 2.08515499
Ag 10.30332523 2.02090882 16.35704688
Ag 8.26307788 0.01822473 4.18955095
Ag 8.22930456 2.08563334 6.17605980
Ag 10.34237579 16.38078030 6.16261984
Ag 10.24317299 2.12140591 4.12000059
Ag 8.10144523 0.02405224 8.15590926
Ag 8.07401153 2.02082200 10.31910007
Ag 10.23309156 16.34546533 10.24772960
Ag 10.22661215 1.96683307 8.27596276
Ag 8.20651119 16.28256678 12.26787048
Ag 8.19929332 2.08751157 14.34243534
Ag 10.20479320 16.38987859 14.33170666
Ag 10.27825320 2.00924935 12.32625960
Ag 8.18994071 4.08139980 0.00295235
Ag 8.29649650 6.19923188 2.00262009
Ag 10.25184039 4.10983241 2.08219669
Ag 10.28206373 6.23147584 16.35874656
Ag 8.18621091 4.18589916 4.08688973
Ag 8.21267694 6.17241309 6.20700599
Ag 10.23326816 4.10263154 6.22038891
Ag 10.26073413 6.16747908 4.20151163
Ag 8.18359679 4.08504103 8.23071298
Ag 8.26761974 6.07421599 10.26043334
Ag 10.23493822 4.00186690 10.24491582
Ag 10.26472827 6.16682524 8.23714901
Ag 8.19649971 4.05310697 12.21378562
Ag 8.18450116 6.14755241 14.23117628
Ag 10.21344986 4.06784532 14.41726423
Ag 10.23413793 6.13973925 12.25404052
Ag 8.26737919 8.18728964 16.34728627
Ag 8.20274222 10.21108230 2.03121940
Ag 10.24526648 8.19588303 2.05340417
Ag 10.19839408 10.20099791 0.00971893
Ag 8.24668460 8.16216969 4.11215202
Ag 8.29740752 10.23716828 6.20111396
Ag 10.23971394 8.20033035 6.20037489
Ag 10.29227585 10.26866869 4.10766412
Ag 8.15379711 8.13891601 8.29518344
Ag 8.21004078 10.28304783 10.20271730
Ag 10.24319376 8.20151025 10.30928592
Ag 10.25111677 10.26190728 8.24164398
Ag 8.13045624 8.16826123 12.29460295
Ag 8.18817655 10.24039468 14.27345635
Ag 10.21970219 8.14415573 14.26856285
Ag 10.21017145 10.20224026 12.26021612
Ag 8.27448203 12.29024806 0.06256175
Ag 8.27599859 14.34358696 2.05961119
Ag 10.22112379 12.17978718 2.04852731
Ag 10.26934093 14.38156172 16.35680972
Ag 8.27283543 12.30109127 4.11886443
Ag 8.17601610 14.35275797 6.21443040
Ag 10.24903159 12.38262029 6.14986731
Ag 10.25604427 14.34318128 4.12566095
Ag 8.10416500 12.31851811 8.16288497
Ag 8.23231768 14.38133223 10.25010135
Ag 10.21460968 12.31711134 10.31892636
Ag 10.20908080 14.33451090 8.23283949
Ag 8.14510506 12.26059282 12.26225052
Ag 8.16949884 14.29339605 14.26114781
Ag 10.31697595 12.20379146 14.30874508
Ag 10.28168087 14.36700754 12.34682314
Ag 12.29269838 0.01398749 16.34504165
Ag 12.32738959 2.08600799 1.99619478
Ag 14.24409763 16.37394397 2.08741331
Ag 14.40063124 2.07349119 0.05876393
Ag 12.25943695 16.39049035 4.10276755
Ag 12.29942273 2.03017472 6.15133960
Ag 14.36034131 16.33127627 6.12023609
Ag 14.30607112 2.03170327 4.09578328
Ag 12.37741607 16.35365355 8.22761580
Ag 12.31784752 2.08091377 10.27116269
Ag 14.40340202 0.03165355 10.37337365
Ag 14.33254226 2.00308759 8.15038221
Ag 12.27994818 0.03480345 12.27528114
Ag 12.34592693 2.07556715 14.34548319
Ag 14.38368112 0.00174665 14.39793435
Ag 14.41514207 2.06540181 12.32008043
Ag 12.30298452 4.15976963 16.36814371
Ag 12.22487779 6.17254036 2.08705525
Ag 14.29341020 4.19201886 2.04292430
Ag 14.27212020 6.18584374 0.00429637
Ag 12.30558746 4.10614605 4.09973107
Ag 12.26301433 6.15273375 6.17881056
Ag 14.32532910 4.14949748 6.11435366
Ag 14.27192002 6.20506617 4.06129671
Ag 12.28460065 4.04300635 8.17936648
Ag 12.39126828 6.09419906 10.26486790
Ag 14.34488904 4.00629010 10.25336581
Ag 14.36424352 6.03692560 8.24138136
Ag 12.27953501 4.07853077 12.30045208
Ag 12.26291514 6.14435590 14.33104103
Ag 14.35094308 4.12600128 14.34459047
Ag 14.37062372 6.14735209 12.32293384
Ag 12.18577209 8.22246766 16.32002480
Ag 12.25885188 10.24443493 2.04451484
Ag 14.32093275 8.18925960 2.06056070
Ag 14.37055619 10.28032868 0.04186250
Ag 12.26638357 8.23150360 4.16437639
Ag 12.28856309 10.23922727 6.11614588
Ag 14.30839534 8.18460935 6.15277268
Ag 14.24766304 10.25807038 4.12072616
Ag 12.24581533 8.19022658 8.25423336
Ag 12.33092737 10.23875603 10.25266682
Ag 14.30922239 8.24389942 10.25902810
Ag 14.34395566 10.16640558 8.27442909
Ag 12.33241886 8.17525391 12.31820171
Ag 12.30708297 10.26806820 14.31024288
Ag 14.35442701 8.16159027 14.42362617
Ag 14.41088312 10.23474698 12.25162489
Ag 12.29135228 12.25006313 16.38555943
Ag 12.24469397 14.33242299 1.98978323
Ag 14.24102081 12.25062000 2.10301436
Ag 14.35324321 14.34794416 0.06342199
Ag 12.24809011 12.34050541 4.15433599
Ag 12.30278738 14.32227095 6.17821820
Ag 14.31560675 12.26951166 6.12324391
Ag 14.31340493 14.31674216 4.08508919
Ag 12.27844688 12.26893743 8.25744432
Ag 12.30503754 14.37356338 10.20293850
Ag 14.38764428 12.32165921 10.21628515
Ag 14.34664080 14.31843358 8.21675377
Ag 12.39635375 12.31875252 12.22526554
Ag 12.26251656 14.32554362 14.37175653
Ag 14.32583499 12.35115666 14.36326392
Ag 14.40515162 14.34077518 12.35449642
256
Lattice="16.39280000 0 0 0 16.39280000 0 0 0 16.39280000" Properties=species:S:1:pos:R:3 pbc="T T T" Frame=16
Ag 16.35682679 0.01021557 0.09724216
Ag 16.37855093 2.03294641 2.10519785
Ag 1.96685887 16.36488186 2.09912780
Ag 2.05189115 1.98575607 0.03455502
Ag 16.38211282 0.01779167 4.06338928
Ag 16.34952433 2.05153481 6.08234607
Ag 1.97125435 0.08604565 6.09997963
Ag 2.03746921 2.09936394 4.08888105
Ag 0.00796807 16.38099462 8.16967791
Ag 0.04368646 2.04547811 10.24575902
Ag 2.02888529 0.05492487 10.25661375
Ag 2.06905694 2.01699629 8.13016226
Ag 0.03592616 0.02689869 12.38278128
Ag 16.34987150 2.00627954 14.37169784
Ag 2.04492947 0.02605061 14.37991056
Ag 2.02098449 2.05146545 12.33076382
Ag 16.32618546 4.14170921 0.06107531
Ag 16.33634914 6.18908025 2.07567620
Ag 2.06999271 4.20469458 2.01749821
Ag 2.07249106 6.12989515 16.36184684
Ag 16.35607753 4.25500250 4.04189427
Ag 0.02955081 6.27350133 6.10801468
Ag 2.02178966 4.03757185 6.14904154
Ag 2.06602445 6.18902971 4.16626018
Ag 0.02018783 4.04500878 8.13056938
Ag 0.02143633 6.06750033 10.22820095
Ag 2.01274756 4.00936754 10.19111868
Ag 2.04956919 6.09916825 8.17482748
Ag 0.01196655 4.03369122 12.32528073
Ag 0.00344996 6.19514935 14.40335024
Ag 2.08761823 4.03867125 14.36541884
Ag 2.00692323 6.09489115 12.34162921
Ag 0.09360478 8.23411961 0.03240002
Ag 0.08186614 10.29573411 2.00012015
Ag 2.06818757 8.16831641 2.10723006
Ag 2.12883865 10.22117409 16.34124612
Ag 16.32465760 8.25373070 4.12263030
Ag 16.31795082 10.30268929 6.07267253
Ag 2.06785547 8.24037962 6.18070826
Ag 2.09093752 10.21478460 4.12516643
Ag 0.07510868 8.13662211 8.29055650
Ag 0.10139861 10.22423437 10.24014724
Ag 2.09416559 8.15430020 10.25411997
Ag 2.05153873 10.19251520 8.13787517
Ag 16.36218796 8.21272455 12.27853665
Ag 16.34118976 10.22891927 14.37321637
Ag 2.08908279 8.11766166 14.36172516
Ag 2.09781452 10.25130167 12.31132547
Ag 16.37821462 12.27336870 0.03261087
Ag 16.30025139 14.22679599 2.08334578
Ag 2.15257021 12.25127787 2.01692609
Ag 1.98730486 14.34053672 0.03472367
Ag 0.00739661 12.29553095 4.05320230
Ag 0.01535024 14.35803269 6.10815985
Ag 1.99773881 12.29333132 6.06917764
Ag 2.02621210 14.40521958 4.06544814
Ag 16.32174532 12.32638586 8.21833188
Ag 0.05146651 14.40755142 10.25920467
Ag 2.10159222 12.36871108 10.19663319
Ag 2.06218750 14.34534639 8.12089492
Ag 0.10839402 12.34131206 12.31317556
Ag 0.08220687 14.38680655 14.39645437
Ag 2.07027225 12.25563204 14.33241743
Ag 2.08334414 14.42143454 12.29084879
Ag 4.09834175 16.38505902 0.07150214
Ag 4.13458008 2.04962705 2.06037817
Ag 6.15626471 16.38844222 2.04973518
Ag 6.16590073 2.09021270 0.03860284
Ag 4.09089653 0.02566115 4.07036797
Ag 4.12064473 2.04351033 6.05287087
Ag 6.09882747 16.38877765 6.15675304
Ag 6.12703975 2.01503732 4.02480247
Ag 4.01412059 16.38822110 8.18062031
Ag 4.12583028 2.01842110 10.25103157
Ag 6.12580345 16.34517697 10.25978571
Ag 6.05651432 2.02651469 8.16966357
Ag 4.10066626 16.38122971 12.26932409
Ag 4.04101574 2.11178824 14.32078061
Ag 6.02987852 16.38828167 14.31694378
Ag 6.04737290 2.09582165 12.23007645
Ag 4.19832960 4.14952260 16.37984178
Ag 4.10644284 6.15563175 2.04024198
Ag 6.10747343 4.16037858 2.01198851
Ag 6.22986260 6.16183341 16.34498385
Ag 4.08376978 4.06799948 4.05882699
Ag 4.05783911 6.13181853 6.16805733
Ag 6.14940419 4.06602631 6.11100041
Ag 6.14624731 6.20547823 4.06675125
Ag 4.00837489 4.05819321 8.17436144
Ag 4.02915246 6.06837010 10.16834478
Ag 6.09740674 4.09806017 10.25724645
Ag 6.12252644 6.15754701 8.22522898
Ag 4.05893708 4.13375317 12.22701688
Ag 4.08494485 6.15505974 14.38849278
Ag 6.13521442 4.17342355 14.30967580
Ag 6.13946203 6.07293282 12.23102195
Ag 4.09714166 8.23659568 16.39199870
Ag 4.14060208 10.25718680 2.06404751
Ag 6.19048980 8.20288223 2.08655537
Ag 6.19802600 10.29492693 0.01708864
Ag 4.18629897 8.19693438 4.09111175
Ag 4.14824248 10.28188990 6.07944569
Ag 6.19996939 8.24028010 6.08177762
Ag 6.26400852 10.25109099 4.12105715
Ag 4.06828367 8.21886461 8.15649426
Ag 4.07664598 10.23074641 10.25686108
Ag 6.13752254 8.20181332 10.27076016
Ag 6.13093806 10.17995541 8.21392854
Ag 4.15496166 8.10058768 12.27883236
Ag 4.13967241 10.20094534 14.33337441
Ag 6.11503578 8.16497899 14.30998246
Ag 6.11265180 10.27674810 12.19002844
Ag 4.13353217 12.29519212 16.33222687
Ag 4.16567481 14.32947572 2.03068122
Ag 6.15223058 12.28125093 2.04023950
Ag 6.15264620 14.37228119 16.37630645
Ag 4.11596870 12.26201919 4.07252506
Ag 4.10927050 14.30788097 6.09963786
Ag 6.22806413 12.26011893 6.14462624
Ag 6.19043663 14.34082212 4.06994124
Ag 4.07598587 12.22685747 8.12074736
Ag 4.07293106 14.37792635 10.20573942
Ag 6.08580599 12.35569365 10.17357157
Ag 6.02188761 14.31820103 8.23903242
Ag 4.06279510 12.39947615 12.26352826
Ag 4.01237897 14.33683095 14.36591087
Ag 6.08150954 12.28244940 14.34172178
Ag 5.99947847 14.35936834 12.31829411
Ag 8.18280723 0.03650495 16.32554303
Ag 8.21835562 2.06374130 2.01878051
Ag 10.23261554 0.06198457 2.04991760
Ag 10.29435528 2.01623339 16.33945425
Ag 8.27547060 0.01884247 4.19768403
Ag 8.22071768 2.09148852 6.17073632
Ag 10.37170062 16.38385423 6.17716330
Ag 10.23015823 2.12109452 4.12421201
Ag 8.09465745 0.00400044 8.15816394
Ag 8.07457393 2.03003328 10.31172982
Ag 10.22770096 16.35605229 10.26008173
Ag 10.22380897 1.95956181 8.25334571
Ag 8.20263974 16.29127459 12.29149464
Ag 8.16956753 2.07668274 14.34922111
Ag 10.21977591 0.01194959 14.33185887
Ag 10.27309735 2.00811921 12.32793987
Ag 8.18568899 4.08946938 0.02509195
Ag 8.30921603 6.20209692 2.01976786
Ag 10.24711072 4.08857533 2.05646870
Ag 10.26795011 6.22240892 16.35316088
Ag 8.19491995 4.19041306 4.07298539
Ag 8.19576424 6.17711809 6.22499587
Ag 10.23621428 4.11716211 6.22782805
Ag 10.27495504 6.16257256 4.22322630
Ag 8.20285785 4.07779529 8.22784149
Ag 8.25706124 6.07006065 10.24594052
Ag 10.23751251 3.98534072 10.22818172
Ag 10.26355303 6.16809794 8.23142909
Ag 8.20315487 4.04939546 12.20296260
Ag 8.19391689 6.12352920 14.21876266
Ag 10.21971570 4.03526024 14.42195280
Ag 10.22031855 6.12438007 12.24567721
Ag 8.27461834 8.20925591 16.34490708
Ag 8.18407585 10.22884014 2.03903602
Ag 10.24958959 8.20620837 2.07066768
Ag 10.21265750 10.20730350 0.01313408
Ag 8.26620250 8.16670893 4.11781889
Ag 8.27998714 10.21958048 6.17973214
Ag 10.24519822 8.21158926 6.18949387
Ag 10.27993605 10.27486779 4.12085160
Ag 8.16933760 8.11474539 8.30439954
Ag 8.17541502 10.28254505 10.21817049
Ag 10.24193150 8.19178323 10.33089082
Ag 10.24563004 10.25408563 8.24858607
Ag 8.13725596 8.16047548 12.29698814
Ag 8.17696394 10.25040769 14.27975401
Ag 10.20067140 8.14861185 14.26656151
Ag 10.20276179 10.20564196 12.28005689
Ag 8.28074717 12.29804239 0.07328523
Ag 8.27325328 14.34247995 2.06776463
Ag 10.22333279 12.17116729 2.05818641
Ag 10.25210149 14.37499510 16.33665530
Ag 8.25912854 12.29824040 4.12003676
Ag 8.15224551 14.35036087 6.21696286
Ag 10.24922788 12.37949129 6.15530938
Ag 10.24180085 14.34624110 4.13142933
Ag 8.10702163 12.31012080 8.18030434
Ag 8.24058717 14.39880574 10.25134316
Ag 10.21652293 12.33573658 10.31063767
Ag 10.21546086 14.34599696 8.21388174
Ag 8.15908726 12.27802463 12.27650373
Ag 8.19664711 14.28938932 14.27384177
Ag 10.32016849 12.22126700 14.31572393
Ag 10.29926672 14.38041649 12.33350224
Ag 12.29068903 0.01723933 16.33671852
Ag 12.34136068 2.08545752 1.98879686
Ag 14.26779075 16.38331798 2.08640618
Ag 14.42338422 2.05893584 0.03542869
Ag 12.25500606 16.38996462 4.10799753
Ag 12.29462709 2.02087777 6.15206495
Ag 14.38200343 16.32388896 6.11848987
Ag 14.29568337 2.04092302 4.08394770
Ag 12.38625949 16.37002225 8.23489879
Ag 12.32435462 2.06122052 10.24644485
Ag 14.39694663 0.03810310 10.37120816
Ag 14.34193439 2.01415070 8.15101606
Ag 12.26205033 0.02595300 12.28147569
Ag 12.35171095 2.07363078 14.33403310
Ag 14.39001649 16.38615176 14.38918910
Ag 14.42204927 2.06977830 12.32537090
Ag 12.31013805 4.14590051 16.36722421
Ag 12.24384833 6.17666296 2.09336342
Ag 14.28420849 4.20301723 2.03508525
Ag 14.27689331 6.16536660 0.00487482
Ag 12.31091143 4.09829940 4.11914492
Ag 12.24412928 6.15637307 6.17295492
Ag 14.32683403 4.15344780 6.11016610
Ag 14.26358133 6.22946645 4.04455668
Ag 12.30058828 4.04154967 8.16267518
Ag 12.38357830 6.07517944 10.26638342
Ag 14.34983918 4.00303829 10.24998150
Ag 14.36315585 6.05807379 8.22630380
Ag 12.28817330 4.08696566 12.29424575
Ag 12.26461604 6.16335973 14.35114843
Ag 14.37048470 4.14653415 14.33273249
Ag 14.38288371 6.14360360 12.31542413
Ag 12.19355622 8.22690692 16.29219450
Ag 12.27164852 10.23176657 2.04342674
Ag 14.32763509 8.19328589 2.04130279
Ag 14.36764074 10.27226295 0.05965734
Ag 12.27397308 8.22459682 4.17534936
Ag 12.29050306 10.24577691 6.10756148
Ag 14.31955265 8.19604099 6.15280736
Ag 14.25590026 10.26647035 4.12519138
Ag 12.23471839 8.18565674 8.24144098
Ag 12.31596220 10.21006791 10.25847188
Ag 14.31716062 8.26293133 10.25838356
Ag 14.33880481 10.17834811 8.28155722
Ag 12.34148733 8.19417773 12.32562186
Ag 12.32763492 10.28043653 14.33092358
Ag 14.34503402 8.16714816 14.43777488
Ag 14.40699460 10.24172005 12.25346977
Ag 12.27987301 12.24029340 0.00322681
Ag 12.23677202 14.34553780 1.99451361
Ag 14.26270358 12.25833218 2.09892529
Ag 14.33983606 14.33655226 0.06232567
Ag 12.28475468 12.35271862 4.15233366
Ag 12.31749510 14.32213593 6.19562039
Ag 14.33940853 12.28169968 6.11617035
Ag 14.30981485 14.31797619 4.06650942
Ag 12.29732207 12.25937935 8.25012204
Ag 12.30902064 14.36323332 10.18094331
Ag 14.38947043 12.30361200 10.18819197
Ag 14.34944670 14.30969034 8.23382044
Ag 12.38035512 12.31890710 12.22020999
Ag 12.25907529 14.31659403 14.38673606
Ag 14.33102004 12.35355230 14.36866756
Ag 14.39958806 14.33029686 12.33696577
256
Lattice="16.39280000 0 0 0 16.39280000 0 0 0 16.39280000" Properties=species:S:1:pos:R:3 pbc="T T T" Frame=17
Ag 16.35028976 16.39148553 0.09651173
Ag 16.36728440 2.04984990 2.11278809
Ag 1.97004198 16.38280558 2.09701933
Ag 2.05377824 1.99841756 0.05059073
Ag 16.37387485 0.01946462 4.07069791
Ag 16.33084124 2.03799335 6.08243976
Ag 1.96165808 0.09114575 6.10723328
Ag 2.03048498 2.09288210 4.10295865
Ag 16.38283694 16.38143398 8.17355622
Ag 0.03216062 2.02863797 10.24153079
Ag 2.03079507 0.06114708 10.26495145
Ag 2.07895186 1.99915762 8.15105404
Ag 0.04005935 0.02809605 12.36884988
Ag 16.36536006 1.99908360 14.36685472
Ag 2.05663906 0.03650387 14.39446141
Ag 2.03362391 2.05375974 12.32620044
Ag 16.32220973 4.14116934 0.05434815
Ag 16.33307457 6.17016853 2.07166633
Ag 2.06873507 4.18473654 1.99093637
Ag 2.07405894 6.10976072 16.34107599
Ag 16.35638511 4.23680643 4.06771285
Ag 0.01659721 6.27460141 6.12093956
Ag 2.02340201 4.01936737 6.14964433
Ag 2.05791430 6.16979658 4.16994678
Ag 0.01051544 4.02766334 8.14014089
Ag 0.02465425 6.06602208 10.23494709
Ag 2.01212634 4.01672481 10.19086584
Ag 2.04004331 6.09791510 8.17137839
Ag 0.01685006 4.02783788 12.32656908
Ag 16.38941184 6.20569030 14.40982585
Ag 2.06449123 4.04331324 14.38174086
Ag 1.99259317 6.10313001 12.35800520
Ag 0.08544040 8.21889185 0.02950620
Ag 0.07981737 10.28202457 2.00088292
Ag 2.06150301 8.16714988 2.11416820
Ag 2.11447230 10.22127330 16.32976617
Ag 16.33213016 8.25480454 4.10509272
Ag 16.31083662 10.29023635 6.08203401
Ag 2.06648871 8.23507328 6.17149774
Ag 2.05933159 10.21069080 4.11508993
Ag 0.07543922 8.13740494 8.29233117
Ag 0.10644117 10.23377159 10.24567491
Ag 2.07483390 8.17576655 10.26741736
Ag 2.05016375 10.22713961 8.13834598
Ag 16.36042040 8.20500286 12.29264971
Ag 16.33931018 10.23180071 14.36957755
Ag 2.07321375 8.12859202 14.34296940
Ag 2.10207079 10.25103637 12.31093609
Ag 16.37399856 12.25913790 0.03866653
Ag 16.29245199 14.25607046 2.10115764
Ag 2.16060613 12.28019327 2.00571198
Ag 1.95737970 14.32642028 0.03279091
Ag 0.00479104 12.31364963 4.05383529
Ag 16.38997966 14.37165223 6.12038484
Ag 1.99222490 12.28782286 6.06515713
Ag 2.03594171 14.40985324 4.07557818
Ag 16.32975495 12.32519229 8.19557162
Ag 0.04766255 14.41431760 10.26737786
Ag 2.08513910 12.36473101 10.19088946
Ag 2.05691440 14.36084954 8.12157801
Ag 0.07810935 12.33934935 12.29814390
Ag 0.06868212 14.37115770 14.39192553
Ag 2.05848934 12.24585617 14.32724623
Ag 2.08587825 14.42633993 12.28293389
Ag 4.09534834 16.38281569 0.06783974
Ag 4.12563545 2.04491167 2.06768828
Ag 6.17689352 16.36830469 2.04253837
Ag 6.15697688 2.07870309 0.04606585
Ag 4.10206719 0.01737100 4.06970318
Ag 4.11437337 2.04339933 6.05909312
Ag 6.08836667 16.38558562 6.14219842
Ag 6.13275669 2.00449453 4.02223497
Ag 4.02949511 16.39208996 8.19669430
Ag 4.12557320 2.01889086 10.26074253
Ag 6.15592828 16.35503660 10.27637696
Ag 6.07648336 2.02932316 8.17476289
Ag 4.09649411 16.37747218 12.27471067
Ag 4.05860896 2.12662594 14.32631652
Ag 6.04380911 16.38812485 14.31198170
Ag 6.06346496 2.12405522 12.23314043
Ag 4.19577568 4.13839341 16.38218225
Ag 4.09428767 6.14774183 2.04660122
Ag 6.13137173 4.14952312 2.02488848
Ag 6.23052657 6.15415789 16.36055545
Ag 4.10838840 4.06366150 4.05981160
Ag 4.05376165 6.13049577 6.18484935
Ag 6.15835628 4.08451802 6.10309765
Ag 6.14833182 6.19828681 4.06804489
Ag 4.01557145 4.04602501 8.17357285
Ag 4.02805641 6.05895637 10.15658867
Ag 6.09804547 4.12366870 10.25632130
Ag 6.12794449 6.15942418 8.23708767
Ag 4.04316352 4.14368993 12.23031786
Ag 4.07889775 6.16566732 14.37548102
Ag 6.14827856 4.18926772 14.32428947
Ag 6.14132547 6.06241697 12.24123102
Ag 4.09645906 8.22530851 16.38422768
Ag 4.15090254 10.25692509 2.08219388
Ag 6.19206159 8.20133136 2.06134172
Ag 6.19519229 10.27736214 0.02515263
Ag 4.19169177 8.19081913 4.09286943
Ag 4.15063187 10.28690333 6.09020631
Ag 6.20930956 8.24054561 6.07383940
Ag 6.24986070 10.25829305 4.12250973
Ag 4.09098888 8.23726550 8.13631718
Ag 4.08064233 10.22624708 10.26079422
Ag 6.11149801 8.19633142 10.28413329
Ag 6.14533993 10.17724448 8.19975739
Ag 4.14692023 8.09454572 12.28293311
Ag 4.13655014 10.20862227 14.32555098
Ag 6.13292481 8.18020466 14.30604613
Ag 6.12969319 10.29247185 12.17082232
Ag 4.11814240 12.27527740 16.32416488
Ag 4.16988432 14.32465314 2.03310735
Ag 6.16067032 12.28636605 2.03139825
Ag 6.14619150 14.35878658 16.37594222
Ag 4.12724630 12.26889721 4.06780324
Ag 4.08974144 14.30260727 6.11692135
Ag 6.22974138 12.23938590 6.13753096
Ag 6.18056094 14.32703903 4.08788546
Ag 4.06928597 12.22843224 8.10339455
Ag 4.08716909 14.37064475 10.19143804
Ag 6.08824086 12.36578423 10.18185235
Ag 6.03579404 14.30175882 8.22512830
Ag 4.06659554 12.41149042 12.25958232
Ag 4.00548940 14.34019880 14.35602968
Ag 6.08707302 12.30483008 14.34019135
Ag 6.01869362 14.35430999 12.29616369
Ag 8.16287996 0.03549704 16.33243887
Ag 8.19534517 2.04973073 2.03146344
Ag 10.21583573 0.06512567 2.01391451
Ag 10.28123740 2.01502917 16.32888262
Ag 8.28164744 0.01940765 4.20040155
Ag 8.20868885 2.09360395 6.16341989
Ag 10.38712122 16.38586369 6.19505649
Ag 10.22001016 2.11752071 4.12744582
Ag 8.09468665 16.37745736 8.16549741
Ag 8.08473558 2.03222725 10.29384453
Ag 10.22488400 16.37386824 10.27012493
Ag 10.22171665 1.95473624 8.22701206
Ag 8.19148734 16.31333506 12.31970167
Ag 8.13481906 2.06305178 14.34932864
Ag 10.23694965 0.02650000 14.33165829
Ag 10.26182900 2.01086880 12.32633640
Ag 8.18517791 4.10207900 0.04441033
Ag 8.31287968 6.19998029 2.03926045
Ag 10.24587624 4.07028407 2.02743325
Ag 10.24935548 6.20063607 16.34963624
Ag 8.20196000 4.18959340 4.06108338
Ag 8.17659841 6.17772377 6.23895246
Ag 10.23911090 4.12799184 6.23105137
Ag 10.28584038 6.15443545 4.23344883
Ag 8.21693518 4.06895467 8.22458466
Ag 8.23831630 6.07045398 10.23137837
Ag 10.24427260 3.97534317 10.21172160
Ag 10.26323241 6.16408874 8.22937771
Ag 8.20999900 4.04656523 12.20521665
Ag 8.20471794 6.09625787 14.21709619
Ag 10.22802403 4.01212867 14.41543261
Ag 10.21470819 6.10406047 12.24086479
Ag 8.26956638 8.23019979 16.34239495
Ag 8.16825317 10.24389747 2.05117754
Ag 10.25772921 8.21950170 2.08975646
Ag 10.22993829 10.21694342 0.00919496
Ag 8.28412417 8.17448946 4.12258210
Ag 8.25859165 10.20445408 6.16058670
Ag 10.24988954 8.22331964 6.18183536
Ag 10.26388117 10.27717518 4.13466845
Ag 8.18937914 8.10061540 8.30675174
Ag 8.14142567 10.27933340 10.23522669
Ag 10.24164188 8.18059359 10.34586948
Ag 10.23901276 10.24768153 8.25407092
Ag 8.14435639 8.15712179 12.29287504
Ag 8.16341460 10.26089725 14.29154979
Ag 10.18461841 8.16055893 14.26342582
Ag 10.20098167 10.21388756 12.30013977
Ag 8.27849318 12.30803978 0.07078008
Ag 8.26634261 14.34449311 2.07369006
Ag 10.23352713 12.17759521 2.06978856
Ag 10.23059475 14.36511775 16.32174582
Ag 8.24077362 12.29582317 4.11968790
Ag 8.13073712 14.35052102 6.21372714
Ag 10.24850799 12.36660277 6.16704792
Ag 10.22942237 14.35118993 4.13394716
Ag 8.12081524 12.30055827 8.20415379
Ag 8.23795201 14.40583434 10.25093857
Ag 10.22165845 12.35117646 10.29719080
Ag 10.22450788 14.35831241 8.19385466
Ag 8.17201128 12.30099000 12.28991104
Ag 8.22105826 14.28517236 14.29457941
Ag 10.31419897 12.24442599 14.32159975
Ag 10.31591636 14.38498706 12.31683061
Ag 12.29203676 0.01978229 16.33307055
Ag 12.34914137 2.08397086 1.98557214
Ag 14.29562429 16.39197678 2.08233874
Ag 14.43525620 2.04633553 0.01086427
Ag 12.25352702 16.38932829 4.10972877
Ag 12.29203810 2.01487438 6.15297680
Ag 14.39839321 16.32116308 6.11709884
Ag 14.28853600 2.05353989 4.07307720
Ag 12.39023439 16.38942267 8.24090728
Ag 12.32936527 2.03510552 10.22283685
Ag 14.38891454 0.04081848 10.35901461
Ag 14.35575148 2.02667312 8.15411980
Ag 12.25401766 0.01328779 12.29200413
Ag 12.35865523 2.07004265 14.32373918
Ag 14.38910674 16.37387670 14.37770980
Ag 14.41867453 2.07081216 12.33129024
Ag 12.31440407 4.12749682 16.36831115
Ag 12.25928095 6.18273193 2.09428310
Ag 14.27767024 4.20424514 2.03110428
Ag 14.28567964 6.14947589 0.00739372
Ag 12.31154871 4.09139728 4.13789300
Ag 12.23503187 6.15965678 6.17152801
Ag 14.33217053 4.15527337 6.10586158
Ag 14.25922811 6.24941316 4.03857451
Ag 12.31564390 4.04290653 8.15042822
Ag 12.36754493 6.06068505 10.26657615
Ag 14.35956182 4.00558783 10.24565106
Ag 14.36198848 6.08844764 8.20796614
Ag 12.29686873 4.09581742 12.29137996
Ag 12.26770096 6.17738532 14.36342993
Ag 14.38813255 4.16411424 14.32405522
Ag 14.39489153 6.13959133 12.30575781
Ag 12.21193411 8.23327073 16.27553718
Ag 12.28591991 10.21495074 2.04403780
Ag 14.33179168 8.20466012 2.01849149
Ag 14.36053767 10.25905202 0.07297800
Ag 12.27936714 8.21541962 4.17715702
Ag 12.28987915 10.25642494 6.11420996
Ag 14.33080574 8.20708685 6.16138951
Ag 14.27153729 10.27248810 4.12067187
Ag 12.23091041 8.18046487 8.22658596
Ag 12.29381188 10.18799454 10.26848227
Ag 14.33172004 8.26486881 10.25787283
Ag 14.33729800 10.19630933 8.27447588
Ag 12.34852623 8.21219847 12.33285806
Ag 12.35015748 10.28742453 14.34778404
Ag 14.33645217 8.17875010 14.44433420
Ag 14.40044477 10.25578737 12.26129556
Ag 12.26748421 12.23502882 0.01594265
Ag 12.22674185 14.35698664 2.00404156
Ag 14.28698705 12.26648833 2.09105992
Ag 14.32439933 14.32451053 0.05555296
Ag 12.31682530 12.36087642 4.14311274
Ag 12.33386004 14.32398578 6.21347461
Ag 14.36233230 12.29821001 6.11611636
Ag 14.30597146 14.32281095 4.05220959
Ag 12.31485487 12.25003336 8.23731197
Ag 12.31343842 14.35146122 10.16974706
Ag 14.39089175 12.28338142 10.17361028
Ag 14.35530365 14.30840578 8.24561332
Ag 12.35890420 12.31672067 12.21952733
Ag 12.26355666 14.31132957 14.39625255
Ag 14.34151092 12.35097900 14.37302501
Ag 14.39181952 14.32349190 12.31667325
256
Lattice="16.39280000 0 0 0 16.39280000 0 0 0 16.39280000" Properties=species:S:1:pos:R:3 pbc="T T T" Frame=18
Ag 16.34712758 16.37611590 0.09177061
Ag 16.35653691 2.07573165 2.11731836
Ag 1.98194077 0.00771670 2.08979559
Ag 2.05344494 2.01940347 0.06738445
Ag 16.36112774 0.01730199 4.07861633
Ag 16.31161161 2.02949865 6.08334279
Ag 1.96221634 0.08605659 6.11353354
Ag 2.02238266 2.08648895 4.10924723
Ag 16.36443858 16.38350202 8.18106509
Ag 0.01654755 2.01126295 10.23539135
Ag 2.03553925 0.06245082 10.27021013
Ag 2.08252973 1.98385079 8.17474469
Ag 0.04247151 0.02514666 12.34988804
Ag 16.38823785 1.99986942 14.36801893
Ag 2.07033755 0.04559746 14.40941324
Ag 2.05052683 2.05481958 12.31905870
Ag 16.32697561 4.13714834 0.04346409
Ag 16.33763049 6.15728255 2.06293379
Ag 2.06432850 4.15596868 1.97035890
Ag 2.07311350 6.09410933 16.32853235
Ag 16.35705651 4.20753308 4.09727412
Ag 16.39211911 6.26420700 6.13774636
Ag 2.02419356 4.00939751 6.14557249
Ag 2.05167116 6.15006079 4.16727986
Ag 16.39083808 4.01478231 8.15080466
Ag 0.02516715 6.06669353 10.24518023
Ag 2.01342645 4.02697003 10.19569488
Ag 2.02767013 6.09900219 8.16709490
Ag 0.02366228 4.03056674 12.32654494
Ag 16.38175175 6.20946708 14.41223681
Ag 2.03398638 4.05368368 14.39993724
Ag 1.97999219 6.11241952 12.36730617
Ag 0.07156514 8.20110487 0.02768022
Ag 0.07391314 10.26431415 2.01043126
Ag 2.05621054 8.16715451 2.11635295
Ag 2.09604487 10.22347677 16.32401576
Ag 16.34347596 8.25478638 4.08271304
Ag 16.31099912 10.27212212 6.10163599
Ag 2.06344501 8.22925292 6.15644063
Ag 2.02818353 10.20914143 4.10179060
Ag 0.06656239 8.14421065 8.28577264
Ag 0.10698854 10.24836937 10.25169160
Ag 2.05808273 8.19377305 10.28255794
Ag 2.04563190 10.26782107 8.14169669
Ag 16.36416569 8.19549600 12.30808913
Ag 16.34293325 10.23587207 14.36358442
Ag 2.05510854 8.15108369 14.32012511
Ag 2.10381089 10.24750198 12.31056779
Ag 16.37268810 12.24897947 0.03970859
Ag 16.29577893 14.29470025 2.11153702
Ag 2.16009013 12.31054556 1.99858392
Ag 1.93738985 14.31386202 0.03470843
Ag 0.00259845 12.32614472 4.05639713
Ag 16.37239669 14.37951873 6.13157300
Ag 1.99015420 12.28318845 6.06636307
Ag 2.04839529 14.40594110 4.08656225
Ag 16.35090034 12.31956815 8.16882696
Ag 0.04142887 14.41680544 10.27356766
Ag 2.06514181 12.35529332 10.18587330
Ag 2.04850082 14.37513570 8.12472914
Ag 0.04359922 12.33429914 12.28144242
Ag 0.04870416 14.35189914 14.38397842
Ag 2.04465722 12.24036475 14.32478528
Ag 2.08238534 14.42653503 12.27614619
Ag 4.09058635 16.38138226 0.05936854
Ag 4.10980869 2.04152745 2.06991124
Ag 6.20130795 16.34769464 2.03682774
Ag 6.14408558 2.06393929 0.04657421
Ag 4.11007497 0.00338814 4.06915230
Ag 4.10655534 2.04316022 6.07187973
Ag 6.08027385 16.38191672 6.12616798
Ag 6.14810248 1.99935873 4.02684781
Ag 4.05125134 0.00296719 8.20849897
Ag 4.11779548 2.02139733 10.26573999
Ag 6.18211234 16.36705568 10.28926298
Ag 6.10009676 2.03523750 8.18116455
Ag 4.08762723 16.38151537 12.28207310
Ag 4.08541854 2.13366909 14.33498185
Ag 6.06404329 16.39129831 14.31041503
Ag 6.08497586 2.14508758 12.25063531
Ag 4.18358220 4.12335426 16.38561854
Ag 4.08467157 6.14453722 2.05138016
Ag 6.16139433 4.13779294 2.04382979
Ag 6.22874346 6.15434183 16.37991925
Ag 4.13180715 4.06731669 4.06387483
Ag 4.05796233 6.12871461 6.19724436
Ag 6.16546327 4.10623486 6.09834492
Ag 6.15407543 6.18369925 4.07315833
Ag 4.03367440 4.03336349 8.17061183
Ag 4.02834264 6.06005469 10.15120807
Ag 6.10096401 4.14464847 10.24380736
Ag 6.13059099 6.15803543 8.24387292
Ag 4.02569003 4.15055078 12.24088066
Ag 4.07851033 6.17127807 14.35772521
Ag 6.16092135 4.19263867 14.33737703
Ag 6.14256235 6.06046520 12.25230721
Ag 4.10099362 8.20937833 16.38162034
Ag 4.15974435 10.25127332 2.09649876
Ag 6.19421061 8.19845721 2.03092588
Ag 6.18974953 10.25526345 0.02726500
Ag 4.18713121 8.18769508 4.09655998
Ag 4.14997388 10.28591598 6.10109900
Ag 6.21480652 8.23431523 6.07707322
Ag 6.23078508 10.26489897 4.11824929
Ag 4.11575793 8.25029689 8.12133435
Ag 4.08220891 10.22575114 10.25983052
Ag 6.08661532 8.18399916 10.29164805
Ag 6.16098996 10.17915944 8.18463638
Ag 4.13134861 8.09310205 12.28652713
Ag 4.13450597 10.21778996 14.31227052
Ag 6.15516889 8.19605824 14.30493403
Ag 6.14368442 10.30825441 12.16594989
Ag 4.10100186 12.25733287 16.32341309
Ag 4.16603944 14.32123965 2.03698702
Ag 6.17207501 12.29489604 2.02428969
Ag 6.14414119 14.34235853 16.37357645
Ag 4.13844284 12.28047295 4.06696417
Ag 4.06984568 14.30032657 6.13155060
Ag 6.22325953 12.22320594 6.13081981
Ag 6.17081896 14.31481414 4.10750496
Ag 4.06357486 12.23371061 8.09142791
Ag 4.09360797 14.36552524 10.17893188
Ag 6.09317469 12.36804812 10.19740578
Ag 6.05803343 14.29318924 8.20105958
Ag 4.06867053 12.40815277 12.25705861
Ag 4.00230035 14.34657498 14.35135273
Ag 6.10004634 12.32697004 14.33556749
Ag 6.05403037 14.34758242 12.27485103
Ag 8.14400304 0.02877202 16.34125680
Ag 8.17286857 2.03650239 2.04752998
Ag 10.20308184 0.06477478 1.98049177
Ag 10.26424213 2.01688001 16.32621406
Ag 8.28128489 0.01924439 4.19797059
Ag 8.19400628 2.09156557 6.15468194
Ag 10.38656114 16.38545015 6.21289329
Ag 10.21402852 2.11107478 4.12888039
Ag 8.10119692 16.36100619 8.17555716
Ag 8.10380782 2.02874757 10.26757392
Ag 10.22423369 0.00398984 10.27633691
Ag 10.22028324 1.95316839 8.19929602
Ag 8.17585102 16.34519476 12.35004023
Ag 8.09847217 2.04926050 14.34399868
Ag 10.25368622 0.03871590 14.33162132
Ag 10.24640291 2.01762846 12.32112129
Ag 8.18821892 4.11563032 0.05830683
Ag 8.30864554 6.19511686 2.05950820
Ag 10.24922644 4.05567857 1.99872810
Ag 10.22917066 6.17105939 16.34866295
Ag 8.20792607 4.18328458 4.05296483
Ag 8.15839022 6.17409377 6.24651975
Ag 10.24093353 4.13314305 6.22952179
Ag 10.29120321 6.14371346 4.23028265
Ag 8.22421156 4.05947321 8.22082346
Ag 8.21422781 6.07410326 10.21963190
Ag 10.25529592 3.97186742 10.19664785
Ag 10.26404869 6.15502556 8.23122303
Ag 8.21699139 4.04429006 12.21839921
Ag 8.21684052 6.06965856 14.22669474
Ag 10.23694441 3.99965589 14.39823015
Ag 10.21781308 6.08043695 12.24007435
Ag 8.25450548 8.24733138 16.34151219
Ag 8.15835820 10.25538102 2.06596006
Ag 10.26870602 8.23389178 2.10700203
Ag 10.24757112 10.22901468 16.39230778
Ag 8.29723419 8.18363225 4.12524685
Ag 8.23609228 10.19386658 6.14707577
Ag 10.25306612 8.23398344 6.17844152
Ag 10.24786225 10.27720616 4.14736664
Ag 8.21108101 8.09977576 8.30333358
Ag 8.11404772 10.27340616 10.25186400
Ag 10.24217614 8.16884769 10.35358953
Ag 10.23030243 10.24278866 8.25823252
Ag 8.15034082 8.15741845 12.28301228
Ag 8.14878345 10.27277202 14.30729178
Ag 10.17339464 8.17747332 14.26027400
Ag 10.20398464 10.22741378 12.31848943
Ag 8.26819301 12.31753661 0.05680570
Ag 8.25585557 14.34872195 2.07726462
Ag 10.24999882 12.19735738 2.08294983
Ag 10.20847955 14.35437649 16.31476595
Ag 8.22040142 12.29471028 4.11806780
Ag 8.11413256 14.35144018 6.20549682
Ag 10.24676679 12.34608804 6.18247062
Ag 10.22076566 14.35635875 4.13490300
Ag 8.14402050 12.29068441 8.23041765
Ag 8.22670277 14.40313984 10.25010254
Ag 10.22861643 12.36105315 10.27906927
Ag 10.23512953 14.37058933 8.17566868
Ag 8.18417847 12.32774782 12.30075679
Ag 8.24063563 14.28325266 14.32020256
Ag 10.30082385 12.26966287 14.32592136
Ag 10.32850020 14.38163663 12.29906090
Ag 12.29684123 0.02129087 16.33466325
Ag 12.35003331 2.08039619 1.98601644
Ag 14.32343866 0.00667842 2.07526519
Ag 14.43510423 2.03712620 16.37957486
Ag 12.25489963 16.38881482 4.10680134
Ag 12.29360669 2.01316730 6.15385997
Ag 14.40509412 16.32429662 6.11634251
Ag 14.28491144 2.06787412 4.06479667
Ag 12.39051567 0.01591801 8.24459896
Ag 12.33231069 2.00741731 10.20379231
Ag 14.37940141 0.03907859 10.33898493
Ag 14.37168554 2.03909000 8.15849221
Ag 12.25780361 16.39163199 12.30483743
Ag 12.36685594 2.06551924 14.31524061
Ag 14.38177439 16.35818673 14.36350457
Ag 14.40557307 2.06810955 12.33658541
Ag 12.31607588 4.10621933 16.36958887
Ag 12.26787108 6.18988845 2.08849955
Ag 14.27467962 4.19474229 2.03264477
Ag 14.29707396 6.14033833 0.01086019
Ag 12.30664639 4.08653562 4.15320008
Ag 12.23848670 6.16266670 6.17531631
Ag 14.34071570 4.15567785 6.10232749
Ag 14.26113313 6.26232775 4.04411097
Ag 12.32915622 4.04698901 8.14358210
Ag 12.34583040 6.05285544 10.26440457
Ag 14.37222817 4.01376980 10.24062331
Ag 14.36054571 6.12487113 8.18921579
Ag 12.30517210 4.10284028 12.29180325
Ag 12.27120653 6.18442041 14.36630792
Ag 14.40170206 4.17637167 14.31921817
Ag 14.40469263 6.13660605 12.29430385
Ag 12.23561815 8.23896052 16.27319769
Ag 12.30004671 10.19696421 2.04789547
Ag 14.33419475 8.22024602 1.99476726
Ag 14.35092070 10.24344977 0.07968708
Ag 12.28251337 8.20778302 4.17086371
Ag 12.28832467 10.27030791 6.13314259
Ag 14.34055216 8.21759268 6.17663999
Ag 14.29303590 10.27539148 4.10817872
Ag 12.23498232 8.17572086 8.21200139
Ag 12.26722117 10.17452501 10.28051106
Ag 14.35082390 8.25121373 10.25716906
Ag 14.33904298 10.21671449 8.25486462
Ag 12.35307521 8.22659232 12.34025928
Ag 12.37140902 10.29110130 14.35895961
Ag 14.33118483 8.19453602 14.44221746
Ag 14.39184816 10.27510334 12.27358854
Ag 12.25623154 12.23547498 0.03084464
Ag 12.21525217 14.36690346 2.01627367
Ag 14.31137191 12.27381856 2.07920168
Ag 14.30857331 14.31304811 0.04516219
Ag 12.33991265 12.36398873 4.12879760
Ag 12.35070995 14.32723245 6.22942645
Ag 14.38239540 12.31747974 6.12203766
Ag 14.30175379 14.33262867 4.04444912
Ag 12.32883714 12.24102560 8.22045574
Ag 12.31749154 14.34002783 10.16910917
Ag 14.39150694 12.26245035 10.17402082
Ag 14.36400035 14.31504594 8.25172992
Ag 12.33454559 12.31188118 12.22320580
Ag 12.27545654 14.30971187 14.39936380
Ag 14.35544755 12.34381825 14.37581331
Ag 14.38110744 14.32038056 12.29485851
256
Lattice="16.39280000 0 0 0 16.39280000 0 0 0 16.39280000" Properties=species:S:1:pos:R:3 pbc="T T T" Frame=19
Ag 16.34817169 16.35946051 0.08228672
Ag 16.34722164 2.10696881 2.11768944
Ag 1.99989331 0.02327435 2.07968045
Ag 2.05047844 2.04541643 0.08180908
Ag 16.34731864 0.01260178 4.08556759
Ag 16.29510321 2.02636553 6.08566783
Ag 1.97195263 0.07194349 6.11924505
Ag 2.01449841 2.08013740 4.10757128
Ag 16.34807819 16.38706098 8.19157283
Ag 16.39237237 1.99612368 10.22963304
Ag 2.04274375 0.05759787 10.27161454
Ag 2.07896818 1.97311484 8.19866041
Ag 0.04277423 0.01916791 12.32939675
Ag 0.02253514 2.00648577 14.37333180
Ag 2.08325513 0.05230952 14.42314637
Ag 2.06955554 2.05515560 12.31124530
Ag 16.33850571 4.12922616 0.02952571
Ag 16.34929414 6.14891965 2.05232636
Ag 2.05739421 4.12196628 1.95953134
Ag 2.07023704 6.08644818 16.32506612
Ag 16.35789601 4.17148987 4.12648174
Ag 16.37299839 6.24385561 6.15502735
Ag 2.02386029 4.00760768 6.13993297
Ag 2.04719995 6.13012349 4.15903673
Ag 16.37838493 4.00839237 8.16136762
Ag 0.02325483 6.07030164 10.25648023
Ag 2.01559021 4.03845378 10.20426297
Ag 2.01414423 6.10199731 8.16281606
Ag 0.03164595 4.03956579 12.32455835
Ag 16.37356039 6.20697400 14.41017644
Ag 2.00088106 4.06635574 14.41674407
Ag 1.97010024 6.12167801 12.36875682
Ag 0.05410148 8.18268186 0.02661559
Ag 0.06457897 10.24562627 2.02602447
Ag 2.05339196 8.16723151 2.11225332
Ag 2.07559019 10.22558999 16.32523323
Ag 16.35623470 8.25115321 4.05927588
Ag 16.31869997 10.25009703 6.12817638
Ag 2.05897806 8.22415928 6.13855012
Ag 2.00182812 10.21231704 4.08733969
Ag 0.05118701 8.15811227 8.27228844
Ag 0.10138427 10.26560998 10.25755927
Ag 2.04544046 8.20648115 10.29647360
Ag 2.03863094 10.30713822 8.14678464
Ag 16.37102063 8.18712988 12.32306245
Ag 16.35085813 10.24036300 14.35604763
Ag 2.03692212 8.18235702 14.29770369
Ag 2.10211183 10.24272354 12.30968966
Ag 16.37358556 12.24318091 0.03733306
Ag 16.31020307 14.33842396 2.11325816
Ag 2.15021453 12.33742565 1.99782526
Ag 1.92876103 14.30494946 0.03847095
Ag 0.00135391 12.33290243 4.06048293
Ag 16.35882445 14.38120151 6.14020575
Ag 1.99114878 12.28005664 6.07107917
Ag 2.06126857 14.39542292 4.09715646
Ag 16.38163350 12.31157444 8.14242270
Ag 0.03326295 14.41430992 10.27614004
Ag 2.04438238 12.34293003 10.18263962
Ag 2.03707459 14.38772957 8.13110604
Ag 0.00894039 12.32676345 12.26496117
Ag 0.02481333 14.33159366 14.37222381
Ag 2.02919056 12.24046195 14.32338930
Ag 2.07296518 14.42078557 12.27138807
Ag 4.08541290 16.38015695 0.04769637
Ag 4.09116492 2.03904732 2.06892086
Ag 6.22443234 16.32787254 2.03442436
Ag 6.12837853 2.04805633 0.04185793
Ag 4.11461201 16.37874938 4.06845582
Ag 4.09920241 2.04229738 6.08945039
Ag 6.07549810 16.37864025 6.11156055
Ag 6.16895776 1.99907224 4.03849742
Ag 4.07897856 0.00597698 8.21549863
Ag 4.10679710 2.02654175 10.26733201
Ag 6.20050107 16.38075890 10.29797935
Ag 6.12539644 2.04316343 8.18773656
Ag 4.07840237 16.39173415 12.29081199
Ag 4.11697837 2.13409528 14.34569702
Ag 6.08668786 0.00220581 14.31213427
Ag 6.10856935 2.15871734 12.27705000
Ag 4.16509499 4.10702086 16.39066158
Ag 4.07838544 6.14436349 2.05437041
Ag 6.19227215 4.12579262 2.06537884
Ag 6.22388485 6.16136815 0.00804493
Ag 4.15121339 4.07710227 4.07038523
Ag 4.06930319 6.12652525 6.20414492
Ag 6.17017187 4.12796842 6.09778110
Ag 6.16268493 6.16584995 4.08055006
Ag 4.05967700 4.02162460 8.16604435
Ag 4.02810762 6.07226970 10.15225459
Ag 6.10573600 4.15681151 10.22338118
Ag 6.13032157 6.15461957 8.24412501
Ag 4.00902987 4.15426903 12.25779775
Ag 4.08365257 6.17149467 14.33824451
Ag 6.17081292 4.18404453 14.34965800
Ag 6.14305302 6.06706228 12.26417132
Ag 4.10795176 8.19115467 16.38256684
Ag 4.16470532 10.24172753 2.10541646
Ag 6.19643221 8.19335597 2.00106448
Ag 6.18074766 10.23294704 0.02317771
Ag 4.17394826 8.18669786 4.10187201
Ag 4.14463808 10.27875289 6.10892402
Ag 6.21536175 8.22169438 6.08957163
Ag 6.20757787 10.26816355 4.10822642
Ag 4.13785805 8.25750528 8.11292956
Ag 4.08171980 10.22986153 10.25358117
Ag 6.06548283 8.16647919 10.29232865
Ag 6.17725195 10.18589238 8.17117677
Ag 4.11035088 8.09693238 12.28971239
Ag 4.13464792 10.22743644 14.29514268
Ag 6.17884740 8.21014873 14.30587111
Ag 6.15173368 10.32251893 12.17796854
Ag 4.08488723 12.24276409 16.32868006
Ag 4.15558896 14.32057168 2.04085711
Ag 6.18411294 12.30590314 2.01871572
Ag 6.14496454 14.32471562 16.36918303
Ag 4.14702174 12.29447976 4.07034862
Ag 4.05154693 14.30182692 6.14282695
Ag 6.21032543 12.21362758 6.12753297
Ag 6.16129123 14.30533387 4.12661717
Ag 4.06068805 12.24332461 8.08760534
Ag 4.09306381 14.36277177 10.16899420
Ag 6.09999084 12.36300812 10.21608245
Ag 6.08582992 14.29166059 8.17076608
Ag 4.06891127 12.39159968 12.25609072
Ag 4.00362473 14.35429674 14.35172172
Ag 6.11773880 12.34671143 14.32902615
Ag 6.10027101 14.34128476 12.25723874
Ag 8.12856860 0.01693306 16.34974128
Ag 8.15403953 2.02534809 2.06435000
Ag 10.19505509 0.06085130 1.95272015
Ag 10.24380933 2.02146918 16.33020467
Ag 8.27481802 0.01759698 4.19069709
Ag 8.17775203 2.08544361 6.14522382
Ag 10.37053679 16.38211659 6.22626309
Ag 10.21292763 2.10199765 4.12795389
Ag 8.11340759 16.34900909 8.18574304
Ag 8.13010838 2.02237137 10.23700481
Ag 10.22478005 0.02829822 10.27835910
Ag 10.21957603 1.95619193 8.17266708
Ag 8.15951461 16.38196033 12.37898074
Ag 8.06536641 2.03808388 14.33631555
Ag 10.26779746 0.04696471 14.33216717
Ag 10.22969869 2.02744279 12.31257946
Ag 8.19342226 4.12624521 0.06485467
Ag 8.29854617 6.18986656 2.07887224
Ag 10.25703379 4.04503595 1.97438498
Ag 10.21045790 6.13946691 16.34997007
Ag 8.21411707 4.17128577 4.05032744
Ag 8.14473866 6.16675660 6.24648135
Ag 10.24108484 4.13177499 6.22331288
Ag 10.29051144 6.13177800 4.21446298
Ag 8.22435335 4.05066792 8.21625048
Ag 8.18858449 6.07982793 10.21316074
Ag 10.26967696 3.97425935 10.18401212
Ag 10.26572775 6.14182570 8.23622425
Ag 8.22355287 4.04232988 12.23810171
Ag 8.22999663 6.04814926 14.24638900
Ag 10.24547706 3.99707211 14.37251364
Ag 10.22826639 6.05612975 12.24311067
Ag 8.23397205 8.25853262 16.34363385
Ag 8.15678018 10.26336749 2.08083287
Ag 10.28023340 8.24723027 2.11886474
Ag 10.26280598 10.24222530 16.37915208
Ag 8.30265694 8.19201549 4.12526488
Ag 8.21490277 10.18939489 6.14113189
Ag 10.25465312 8.24157943 6.17940351
Ag 10.23517220 10.27701146 4.15756659
Ag 8.23166412 8.11286588 8.29511761
Ag 8.09811945 10.26481852 10.26610704
Ag 10.24338936 8.15717941 10.35435520
Ag 10.21952318 10.23897176 8.26138189
Ag 8.15460657 8.16010039 12.26920003
Ag 8.13504984 10.28678974 14.32457579
Ag 10.16809385 8.19623997 14.25895632
Ag 10.21012982 10.24595348 12.33354570
Ag 8.25127278 12.32339095 0.03514064
Ag 8.24304432 14.35358449 2.07861780
Ag 10.26927822 12.22702705 2.09652235
Ag 10.19050499 14.34534213 16.31767982
Ag 8.20093518 12.29552220 4.11565814
Ag 8.10515781 14.35129436 6.19334828
Ag 10.24374836 12.32109552 6.19870134
Ag 10.21676236 14.36026037 4.13617723
Ag 8.17352439 12.28164913 8.25496865
Ag 8.21056734 14.39302703 10.24996933
Ag 10.23623687 12.36395897 10.25725984
Ag 10.24625051 14.38147647 8.16236328
Ag 8.19626165 12.35553378 12.30765640
Ag 8.25327431 14.28679421 14.34626126
Ag 10.28305726 12.29351123 14.32861468
Ag 10.33409815 14.37279380 12.28224262
Ag 12.30437568 0.02158450 16.34144003
Ag 12.34406247 2.07359925 1.98980628
Ag 14.34717687 0.01332503 2.06545502
Ag 14.42390497 2.03188185 16.35741086
Ag 12.25835631 16.38900182 4.09959897
Ag 12.30010450 2.01571545 6.15441215
Ag 14.39905029 16.33399488 6.11665588
Ag 14.28445562 2.08189627 4.06017346
Ag 12.38799742 0.03150660 8.24454511
Ag 12.33298244 1.98380852 10.19242883
Ag 14.36874976 0.03245420 10.31392757
Ag 14.38634199 2.04986124 8.16315905
Ag 12.27300048 16.37752462 12.31765794
Ag 12.37502224 2.06066313 14.30929684
Ag 14.37038634 16.34066071 14.34707643
Ag 14.38575475 2.06204402 12.34001489
Ag 12.31598325 4.08430355 16.36929452
Ag 12.26903094 6.19683371 2.07594730
Ag 14.27574137 4.17595341 2.04006514
Ag 14.30928405 6.13840114 0.01436285
Ag 12.29638276 4.08473260 4.16301179
Ag 12.25401109 6.16541007 6.18318952
Ag 14.35080178 4.15518635 6.10082997
Ag 14.27056210 6.26686957 4.05933025
Ag 12.34094240 4.05335207 8.14249134
Ag 12.32173762 6.05280695 10.25937650
Ag 14.38518042 4.02694546 10.23562697
Ag 14.35841381 6.16315099 8.17326181
Ag 12.31318418 4.10614973 12.29475025
Ag 12.27442392 6.18400461 14.36047555
Ag 14.40964076 4.18160098 14.31832090
Ag 14.41036643 6.13538830 12.28190370
Ag 12.25921244 8.24123747 16.28580233
Ag 12.31208170 10.18171844 2.05568633
Ag 14.33587354 8.23500215 1.97415294
Ag 14.34125822 10.22947077 0.07793956
Ag 12.28396536 8.20474351 4.15937133
Ag 12.28770664 10.28538559 6.15891329
Ag 14.34743489 8.22767301 6.19474768
Ag 14.31833669 10.27505583 4.09097797
Ag 12.24626642 8.17285517 8.20026607
Ag 12.24055350 10.16996547 10.29175517
Ag 14.37153328 8.22690706 10.25603972
Ag 14.34339525 10.23595670 8.22715755
Ag 12.35499937 8.23539197 12.34751578
Ag 12.38790933 10.29386059 14.36379051
Ag 14.33132572 8.21186849 14.43097408
Ag 14.38187102 10.29604754 12.28802848
Ag 12.24806528 12.24211116 0.04680594
Ag 12.20380610 14.37571220 2.02904191
Ag 14.33413000 12.28006493 2.06386064
Ag 14.29415111 14.30327144 0.03369705
Ag 12.35203077 12.36126149 4.11228889
Ag 12.36618796 14.33137339 6.24103253
Ag 14.39791546 12.33674284 6.13158019
Ag 14.29748348 14.34732195 4.04389068
Ag 12.33803361 12.23372653 8.20242605
Ag 12.32083247 14.33043017 10.17704288
Ag 14.39116104 12.24310809 10.18694200
Ag 14.37498853 14.32765568 8.25338185
Ag 12.30976783 12.30452717 12.23141742
Ag 12.29256285 14.31091017 14.39605245
Ag 14.37039373 12.33277964 14.37662143
Ag 14.36699221 14.32031795 12.27294505
256
Lattice="16.39280000 0 0 0 16.39280000 0 0 0 16.39280000" Properties=species:S:1:pos:R:3 pbc="T T T" Frame=20
Ag 16.35332123 16.34479580 0.06712949
Ag 16.33977421 2.13855943 2.11297271
Ag 2.02058048 0.03514061 2.06879129
Ag 2.04485267 2.07162124 0.09014555
Ag 16.33601489 0.00736354 4.09081955
Ag 16.28494240 2.02733587 6.08995692
Ag 1.98859343 0.05145678 6.12461399
Ag 2.00818470 2.07330688 4.09951655
Ag 16.33622755 16.39171210 8.20309948
Ag 16.37670767 1.98554637 10.22686673
Ag 2.05155492 0.04611303 10.26895209
Ag 2.06864789 1.96823863 8.21982925
Ag 0.04055214 0.01196589 12.31078064
Ag 0.04955212 2.01588861 14.38019204
Ag 2.09284887 0.05613269 14.43402408
Ag 2.08773437 2.05516571 12.30476165
Ag 16.35329301 4.11798100 0.01448921
Ag 16.36639187 6.14266429 2.04261571
Ag 2.04891757 4.08832794 1.96169788
Ag 2.06642454 6.08921683 16.33061744
Ag 16.35920551 4.13368499 4.15132183
Ag 16.35506715 6.21614966 6.16944303
Ag 2.02279023 4.01307279 6.13563807
Ag 2.04395422 6.11045645 4.14639728
Ag 16.36892626 4.01016310 8.17092652
Ag 0.01978699 6.07772125 10.26598303
Ag 2.01800402 4.05013172 10.21463096
Ag 2.00141049 6.10656635 8.15930675
Ag 0.03923177 4.05154429 12.32045362
Ag 16.36565908 6.19951227 14.40364909
Ag 1.97087268 4.07867636 14.42861870
Ag 1.96406999 6.13023657 12.36288184
Ag 0.03537380 8.16589937 0.02545710
Ag 0.05197345 10.22915426 2.04324897
Ag 2.05392410 8.16675501 2.10100336
Ag 2.05529434 10.22585572 16.33380174
Ag 16.36808719 8.24149345 4.03906375
Ag 16.33351629 10.22636598 6.15687724
Ag 2.05330847 8.21989664 6.12061984
Ag 1.98377836 10.22166526 4.07387822
Ag 0.03311743 8.17902997 8.25408128
Ag 0.08856166 10.28193484 10.26243652
Ag 2.03674135 8.21328359 10.30589007
Ag 2.03085259 10.33783621 8.15284877
Ag 16.37811485 8.18246878 12.33536475
Ag 16.36162340 10.24470908 14.34782082
Ag 2.02104353 8.21778925 14.28052024
Ag 2.09622137 10.23921534 12.30737929
Ag 16.37601580 12.24134453 0.03329876
Ag 16.33398832 14.38150643 2.10743266
Ag 2.13106657 12.35649271 2.00516827
Ag 1.93171186 14.30128810 0.04109167
Ag 0.00098198 12.33510072 4.06527715
Ag 16.35154754 14.37821676 6.14515553
Ag 1.99522033 12.27877544 6.07710364
Ag 2.07201947 14.38050759 4.10601965
Ag 0.02343890 12.30393472 8.12090018
Ag 0.02379487 14.40638108 10.27394836
Ag 2.02564537 12.33057790 10.18261937
Ag 2.02342561 14.39833000 8.14115977
Ag 16.37104657 12.31795484 12.25088149
Ag 0.00000936 14.31275014 14.35722720
Ag 2.01316750 12.24663547 14.32180461
Ag 2.05913941 14.40851367 12.26957251
Ag 4.08146363 16.37871687 0.03485426
Ag 4.07461662 2.03717481 2.06734006
Ag 6.24077173 16.31039941 2.03674289
Ag 6.11180438 2.03298111 0.03480467
Ag 4.11605803 16.36097745 4.06739947
Ag 4.09364101 2.04039736 6.10920414
Ag 6.07478580 16.37664030 6.10078594
Ag 6.18965264 2.00278648 4.05638112
Ag 4.11113284 0.00832089 8.21766549
Ag 4.09700705 2.03464918 10.26699869
Ag 6.20860177 0.00298085 10.30257877
Ag 6.15036276 2.05135544 8.19326064
Ag 4.07263581 0.01246629 12.30043218
Ag 4.14796269 2.12911546 14.35722293
Ag 6.10714034 0.00310678 14.31714240
Ag 6.13032518 2.16533534 12.30474353
Ag 4.14390610 4.09226078 0.00472326
Ag 4.07580502 6.14518293 2.05576972
Ag 6.21883715 4.11400674 2.08554308
Ag 6.21561646 6.17183514 0.02774976
Ag 4.16452397 4.09019678 4.07853538
Ag 4.08539761 6.12436646 6.20508750
Ag 6.17232551 4.14605846 6.10214036
Ag 6.17275247 6.14944598 4.08859244
Ag 4.08929112 4.01268710 8.16087092
Ag 4.02615964 6.09371798 10.15913608
Ag 6.11141826 4.15760001 10.20080537
Ag 6.12771591 6.15074629 8.23697648
Ag 3.99608407 4.15507098 12.27925694
Ag 4.09284142 6.16689973 14.32051315
Ag 6.17625673 4.16646167 14.36215826
Ag 6.14284768 6.08010098 12.27660644
Ag 4.11438504 8.17305908 16.38462816
Ag 4.16392814 10.23046976 2.10791174
Ag 6.19799374 8.18605874 1.97791852
Ag 6.16749733 10.21489821 0.01386332
Ag 4.15462475 8.18629902 4.10826151
Ag 4.13388044 10.26642176 6.11210157
Ag 6.21055761 8.20383747 6.10820127
Ag 6.18185652 10.26602793 4.09398989
Ag 4.15320864 8.25899042 8.11170876
Ag 4.08015672 10.23818333 10.24255598
Ag 6.04995215 8.14704575 10.28667288
Ag 6.19290862 10.19728409 8.16185300
Ag 4.08693121 8.10650061 12.29242185
Ag 4.13718778 10.23680429 14.27694921
Ag 6.20073823 8.22026221 14.30758764
Ag 6.15240741 10.33316869 12.20629904
Ag 4.07214537 12.23237646 16.33824250
Ag 4.14090156 14.32349950 2.04320536
Ag 6.19421330 12.31776515 2.01449527
Ag 6.14648335 14.30804501 16.36347113
Ag 4.15083850 12.30825280 4.07727463
Ag 4.03664889 14.30756249 6.15088483
Ag 6.19290995 12.21164808 6.12940705
Ag 6.15199577 14.29960124 4.14294474
Ag 4.06208533 12.25737098 8.09324136
Ag 4.08799510 14.36163736 10.16252524
Ag 6.10786185 12.35227493 10.23318684
Ag 6.11557467 14.29502656 8.13969022
Ag 4.06778577 12.36627077 12.25683322
Ag 4.00997535 14.36131233 14.35570730
Ag 6.13668644 12.36240831 14.32165126
Ag 6.15009220 14.33737148 12.24569555
Ag 8.11865005 0.00165061 16.35595294
Ag 8.14194021 2.01703103 2.07869814
Ag 10.19168174 0.05356770 1.93327775
Ag 10.22070220 2.02844788 16.33796044
Ag 8.26338125 0.01364601 4.17896266
Ag 8.16146182 2.07568378 6.13593257
Ag 10.34177137 16.37649344 6.23094640
Ag 10.21677275 2.09023981 4.12448257
Ag 8.13018333 16.34218898 8.19378861
Ag 8.16128327 2.01618626 10.20700347
Ag 10.22579040 0.04955776 10.27670241
Ag 10.21996363 1.96503404 8.14924095
Ag 8.14645287 0.02564311 12.40213152
Ag 8.04139903 2.03224367 14.33100653
Ag 10.27797102 0.05038502 14.33353456
Ag 10.21493855 2.03855155 12.30157952
Ag 8.19845182 4.13060701 0.06338570
Ag 8.28494178 6.18584637 2.09563591
Ag 10.26813128 4.03850490 1.95826078
Ag 10.19627311 6.11126761 16.35302765
Ag 8.22205131 4.15368471 4.05449325
Ag 8.13907455 6.15697595 6.23898737
Ag 10.23957090 4.12435839 6.21305214
Ag 10.28496320 6.12044970 4.18897914
Ag 8.21832772 4.04418924 8.21050052
Ag 8.16531565 6.08693559 10.21306867
Ag 10.28571993 3.98138165 10.17463440
Ag 10.26739536 6.12611470 8.24272237
Ag 8.22862807 4.04105270 12.25926942
Ag 8.24312107 6.03553319 14.27366348
Ag 10.25331881 4.00211000 14.34197665
Ag 10.24346864 6.03433212 12.24938207
Ag 8.21354973 8.26256476 16.34934726
Ag 8.16440198 10.26841272 2.09294492
Ag 10.28940098 8.25760993 2.12265741
Ag 10.27351116 10.25523025 16.36497608
Ag 8.29860933 8.19801570 4.12290128
Ag 8.19669728 10.19169789 6.14269185
Ag 10.25510413 8.24423199 6.18385396
Ag 10.22807149 10.27837920 4.16448415
Ag 8.24867859 8.13743534 8.28312091
Ag 8.09593284 10.25388739 10.27704922
Ag 10.24516319 8.14604876 10.34917464
Ag 10.20784951 10.23541585 8.26382437
Ag 8.15736967 8.16395420 12.25389784
Ag 8.12467134 10.30302836 14.34070929
Ag 10.16886880 8.21403930 14.26113424
Ag 10.21726427 10.26829452 12.34430400
Ag 8.22982466 12.32300882 0.01047569
Ag 8.22988931 14.35702035 2.07811621
Ag 10.28709099 12.26230865 2.10906572
Ag 10.18107891 14.33985710 16.33135711
Ag 8.18482556 12.29831491 4.11317005
Ag 8.10632002 14.34879083 6.17837771
Ag 10.23915736 12.29520861 6.21317108
Ag 10.21747107 14.36199688 4.13929033
Ag 8.20516102 12.27470761 8.27429702
Ag 8.19371175 14.37862502 10.25070921
Ag 10.24402017 12.35960328 10.23350256
Ag 10.25704251 14.38928480 8.15645074
Ag 8.20902780 12.38089673 12.30979188
Ag 8.25728521 14.29869342 14.36800925
Ag 10.26440322 12.31348322 14.33012448
Ag 10.33108611 14.36190584 12.26792034
Ag 12.31331726 0.02061458 16.35255959
Ag 12.33192280 2.06288904 1.99672586
Ag 14.36365129 0.01995079 2.05335544
Ag 14.40452583 2.03029924 16.33833082
Ag 12.26267123 16.39068440 4.08956957
Ag 12.31083044 2.02154545 6.15432446
Ag 14.37993493 16.35003323 6.11849992
Ag 14.28624694 2.09343736 4.05968301
Ag 12.38293090 0.04032340 8.23922629
Ag 12.33156881 1.96936090 10.19091345
Ag 14.35753077 0.02110065 10.28691694
Ag 14.39596243 2.05776145 8.16758708
Ag 12.29667856 16.36542406 12.32807416
Ag 12.38076141 2.05581782 14.30663886
Ag 14.35811502 16.32355391 14.32965577
Ag 14.36365000 2.05350716 12.34032061
Ag 12.31519034 4.06413006 16.36621037
Ag 12.26452863 6.20197557 2.05790723
Ag 14.28061431 4.15146338 2.05216427
Ag 14.32051566 6.14229227 0.01729898
Ag 12.28203374 4.08665871 4.16615132
Ag 12.27809938 6.16774408 6.19232514
Ag 14.35984941 4.15398372 6.10267886
Ag 14.28701058 6.26292918 4.08062058
Ag 12.35104998 4.06127661 8.14684302
Ag 12.29887153 6.06067804 10.25185512
Ag 14.39561059 4.04412441 10.23163242
Ag 14.35531488 6.19841570 8.16336315
Ag 12.32142463 4.10460886 12.29872986
Ag 12.27710079 6.17717567 14.34840677
Ag 14.41119912 4.17894938 14.32082011
Ag 14.41031475 6.13599894 12.26997770
Ag 12.27855813 8.23802227 16.31083115
Ag 12.32035121 10.17335641 2.06702359
Ag 14.33778609 8.24356842 1.96105280
Ag 14.33406190 10.22127134 0.06673080
Ag 12.28479917 8.20739423 4.14632114
Ag 12.28933354 10.29883106 6.18515972
Ag 14.35057512 8.23742573 6.21070317
Ag 14.34538268 10.27190375 4.07329901
Ag 12.26279312 8.17337859 8.19377416
Ag 12.21826858 10.17348106 10.29968710
Ag 14.39072395 8.19814071 10.25468088
Ag 14.34975590 10.25181947 8.19732729
Ag 12.35430832 8.23768651 12.35363754
Ag 12.39647989 10.29734508 14.36305629
Ag 14.33752140 8.22788616 14.41132570
Ag 14.37094884 10.31410885 12.30217083
Ag 12.24447057 12.25455066 0.06194925
Ag 12.19462303 14.38397429 2.04052769
Ag 14.35420794 12.28585546 2.04653001
Ag 14.28298835 14.29614113 0.02358221
Ag 12.35379805 12.35250798 4.09657599
Ag 12.37809304 14.33601723 6.24625265
Ag 14.40775980 12.35270719 6.14189158
Ag 14.29389365 14.36510036 4.04944032
Ag 12.34217398 12.23045894 8.18713336
Ag 12.32339953 14.32359004 10.19047403
Ag 14.38907602 12.22776034 10.20712902
Ag 14.38710576 14.34268924 8.25247042
Ag 12.28686165 12.29536796 12.24409354
Ag 12.31142361 14.31345306 14.38698891
Ag 14.38365934 12.31888390 14.37536582
Ag 14.34975852 14.32207910 12.25242704
256
Lattice="16.39280000 0 0 0 16.39280000 0 0 0 16.39280000" Properties=species:S:1:pos:R:3 pbc="T T T" Frame=21
Ag 16.36163652 16.33533433 0.04560602
Ag 16.33419661 2.16473978 2.10264677
Ag 2.04075401 0.04235671 2.05852654
Ag 2.03717725 2.09251538 0.08920217
Ag 16.32982386 0.00381522 4.09468120
Ag 16.28400581 2.03006679 6.09686191
Ag 2.00936839 0.02803993 6.12971124
Ag 2.00463387 2.06532083 4.08802353
Ag 16.33080826 0.00421353 8.21287707
Ag 16.36442350 1.98108539 10.22932251
Ag 2.06095648 0.02862788 10.26276934
Ag 2.05309564 1.96960249 8.23559335
Ag 0.03561717 0.00517687 12.29646327
Ag 0.07187122 2.02491462 14.38589749
Ag 2.09730905 0.05682927 14.44040619
Ag 2.10191205 2.05493593 12.30114056
Ag 16.36707789 4.10514209 0.00090838
Ag 16.38665189 6.13600359 2.03576709
Ag 2.04016328 4.06151234 1.97888275
Ag 2.06262559 6.10274529 16.34405726
Ag 16.36150369 4.09903455 4.16859244
Ag 16.34132889 6.18452842 6.17866657
Ag 2.02196085 4.02418275 6.13473242
Ag 2.04130674 6.09180600 4.13074043
Ag 16.36462476 4.02077634 8.17903490
Ag 0.01600707 6.08948271 10.27107160
Ag 2.02056825 4.06152117 10.22483639
Ag 1.99131076 6.11270783 8.15711702
Ag 0.04447696 4.06329136 12.31455326
Ag 16.35909222 6.18878812 14.39304005
Ag 1.94972433 4.08979563 14.43262231
Ag 1.96298533 6.13793311 12.35133762
Ag 0.01750485 8.15298907 0.02309477
Ag 0.03650595 10.21749044 2.05727322
Ag 2.05806674 8.16573366 2.08288306
Ag 2.03718534 10.22355304 16.34925687
Ag 16.37780846 8.22439566 4.02578776
Ag 16.35449380 10.20358422 6.18210769
Ag 2.04661832 8.21557019 6.10482489
Ag 1.97619200 10.23712325 4.06313147
Ag 0.01637099 8.20531359 8.23380387
Ag 0.06848188 10.29343325 10.26535239
Ag 2.03078792 8.21481195 10.30797417
Ag 2.02508532 10.35396916 8.15958459
Ag 16.38285175 8.18311331 12.34268873
Ag 16.37362714 10.24879782 14.33973073
Ag 2.00969207 8.25185618 14.27270797
Ag 2.08574835 10.23950178 12.30239870
Ag 16.37962366 12.24306394 0.02897642
Ag 16.36407822 14.41811207 2.09655711
Ag 2.10379057 12.36495668 2.02086525
Ag 1.94561788 14.30337755 0.03976682
Ag 0.00085848 12.33451563 4.07001206
Ag 16.35130472 14.37353820 6.14580276
Ag 2.00279995 12.27947356 6.08242480
Ag 2.07838874 14.36346119 4.11202047
Ag 0.05519795 12.29948035 8.10783467
Ag 0.01368063 14.39300964 10.26678336
Ag 2.01137719 12.32095316 10.18724811
Ag 2.00905504 14.40661989 8.15476207
Ag 16.34796945 12.30954405 12.24142927
Ag 16.36991686 14.29760065 14.34017640
Ag 1.99825691 12.25838462 14.31951688
Ag 2.04327401 14.39013294 12.27134687
Ag 4.08017969 16.37694179 0.02294022
Ag 4.06468699 2.03575798 2.06744326
Ag 6.24574417 16.29711618 2.04423550
Ag 6.09691702 2.02003314 0.02890151
Ag 4.11512303 16.34605009 4.06608754
Ag 4.09035326 2.03727024 6.12837187
Ag 6.07868592 16.37645664 6.09534977
Ag 6.20460850 2.00966896 4.07894372
Ag 4.14512107 0.01036705 8.21559532
Ag 4.09164075 2.04549848 10.26570363
Ag 6.20597734 0.01884207 10.30342746
Ag 6.17307003 2.05769017 8.19664811
Ag 4.07270704 0.02607164 12.31041166
Ag 4.17310298 2.11956635 14.36819892
Ag 6.12129216 16.39116412 14.32546976
Ag 6.14631204 2.16551895 12.32614609
Ag 4.12300119 4.08167717 0.01322184
Ag 4.07701042 6.14512920 2.05614933
Ag 6.23701256 4.10291275 2.10082674
Ag 6.20426746 6.18104518 0.04321861
Ag 4.17051616 4.10350517 4.08750849
Ag 4.10295797 6.12292928 6.20016051
Ag 6.17219443 4.15701337 6.11148160
Ag 6.18279981 6.13835753 4.09584508
Ag 4.11780233 4.00843934 8.15622402
Ag 4.02220857 6.12063845 10.17085266
Ag 6.11693108 4.14692619 10.18205330
Ag 6.12398518 6.14767028 8.22287061
Ag 3.98936435 4.15331802 12.30293685
Ag 4.10387334 6.15884570 14.30781525
Ag 6.17656894 4.14468217 14.37565203
Ag 6.14217324 6.09643902 12.28926120
Ag 4.11787393 8.15732166 16.38528886
Ag 4.15627233 10.21965836 2.10340564
Ag 6.19806710 8.17795116 1.96692761
Ag 6.14992145 10.20459952 0.00117831
Ag 4.13187917 8.18484568 4.11487775
Ag 4.11803815 10.25095994 6.11089492
Ag 6.20097309 8.18290222 6.12954783
Ag 6.15605226 10.25784614 4.07813782
Ag 4.15885365 8.25540946 8.11757747
Ag 4.07871810 10.24946835 10.22799677
Ag 6.04122037 8.12981755 10.27620394
Ag 6.20602541 10.21260391 8.15863513
Ag 4.06448799 8.12184798 12.29445863
Ag 4.14123678 10.24542745 14.26119125
Ag 6.21802850 8.22465663 14.30884075
Ag 6.14676351 10.33822179 12.24671275
Ag 4.06390976 12.22645011 16.35048032
Ag 4.12437176 14.32983169 2.04281841
Ag 6.20002544 12.32844187 2.01173247
Ag 6.14647870 14.29466069 16.35771045
Ag 4.14856613 12.31925041 4.08629641
Ag 4.02664374 14.31738431 6.15662620
Ag 6.17286927 12.21692111 6.13636918
Ag 6.14303980 14.29819485 4.15459280
Ag 4.06818182 12.27504134 8.10800138
Ag 4.08146669 14.36091620 10.16058050
Ag 6.11600517 12.33750915 10.24515709
Ag 6.14384622 14.30105736 8.11318702
Ag 4.06587679 12.33748773 12.25921438
Ag 4.02126641 14.36564446 14.36111911
Ag 6.15341722 12.37305712 14.31410426
Ag 6.19578548 14.33754014 12.24187746
Ag 8.11549975 16.37810602 16.35899833
Ag 8.13879177 2.01159836 2.08760435
Ag 10.19224775 0.04352385 1.92418017
Ag 10.19616537 2.03709795 16.34618330
Ag 8.24856722 0.00670587 4.16329050
Ag 8.14722231 2.06295613 6.12794499
Ag 10.30431097 16.37007244 6.22427818
Ag 10.22499801 2.07556180 4.11871498
Ag 8.15006604 16.34041865 8.19819032
Ag 8.19441007 2.01279324 10.18204444
Ag 10.22730050 0.06360255 10.27225715
Ag 10.22221698 1.98002403 8.13031345
Ag 8.14005314 0.05714131 12.41495286
Ag 8.03226804 2.03382156 14.33341585
Ag 10.28389687 0.04890635 14.33574570
Ag 10.20509890 2.04888777 12.28938036
Ag 8.20083521 4.12661850 0.05476274
Ag 8.27004914 6.18338873 2.10804729
Ag 10.28057678 4.03621526 1.95319846
Ag 10.18935299 6.09068453 16.35749219
Ag 8.23275161 4.13124695 4.06589758
Ag 8.14397732 6.14650953 6.22524683
Ag 10.23696098 4.11239914 6.19974158
Ag 10.27660389 6.11167130 4.15783963
Ag 8.20816712 4.04183050 8.20328734
Ag 8.14761772 6.09510331 10.21883303
Ag 10.30128348 3.99191510 10.16916005
Ag 10.26780378 6.11003306 8.24837895
Ag 8.23090262 4.04162057 12.27755164
Ag 8.25424878 6.03415647 14.30505348
Ag 10.26069285 4.01181990 14.31127891
Ag 10.26029749 6.01833247 12.25791295
Ag 8.19842997 8.25928835 16.35841110
Ag 8.18037091 10.27126095 2.09985373
Ag 10.29348440 8.26374260 2.11710680
Ag 10.27866486 10.26699104 16.35208429
Ag 8.28486782 8.20109364 4.11912882
Ag 8.18237854 10.20030500 6.14973334
Ag 10.25513172 8.24078216 6.19017694
Ag 10.22741801 10.28211784 4.16797062
Ag 8.26002647 8.16853250 8.26849222
Ag 8.10662763 10.24146831 10.28541431
Ag 10.24740288 8.13597906 10.33943673
Ag 10.19752305 10.23122797 8.26565697
Ag 8.15943868 8.16811952 12.23983009
Ag 8.12005183 10.32036412 14.35326398
Ag 10.17509087 8.22887075 14.26765052
Ag 10.22317931 10.29213568 12.35028639
Ag 8.20649826 12.31546042 16.38020233
Ag 8.21864775 14.35699201 2.07626331
Ag 10.29922562 12.29860563 2.11908995
Ag 10.18252091 14.33834418 16.35469922
Ag 8.17349987 12.30245183 4.11141368
Ag 8.11922035 14.34335605 6.16165923
Ag 10.23295917 12.27192194 6.22388252
Ag 10.22237497 14.36133586 4.14508606
Ag 8.23420837 12.27102431 8.28575785
Ag 8.17991145 14.36338232 10.25116355
Ag 10.25219198 12.34879223 10.21045073
Ag 10.26703510 14.39257260 8.15923287
Ag 8.22299824 12.39997850 12.30707740
Ag 8.25248764 14.32038135 14.38180455
Ag 10.24796070 12.32865454 14.33150479
Ag 10.31953804 14.35266214 12.25702727
Ag 12.32201114 0.01837943 16.36637468
Ag 12.31492410 2.04848208 2.00640140
Ag 14.37129275 0.02736529 2.03960070
Ag 14.38096689 2.03146188 16.32332383
Ag 12.26652030 0.00177294 4.07859275
Ag 12.32380713 2.02944200 6.15336847
Ag 14.35059561 16.37114700 6.12209651
Ag 14.28906434 2.10046457 4.06331284
Ag 12.37480014 0.04100009 8.22805329
Ag 12.32866035 1.96703329 10.19965861
Ag 14.34640309 0.00612484 10.26096575
Ag 14.39759620 2.06221097 8.17176373
Ag 12.32384216 16.35639855 12.33386216
Ag 12.38128366 2.05092245 14.30762109
Ag 14.34826964 16.30934902 14.31322758
Ag 14.34393096 2.04360532 12.33642889
Ag 12.31454059 4.04780075 16.36005104
Ag 12.25730100 6.20369691 2.03669382
Ag 14.28805599 4.12602040 2.06658219
Ag 14.32938964 6.14933706 0.01924284
Ag 12.26580155 4.09242004 4.16228996
Ag 12.30560123 6.16944210 6.19940406
Ag 14.36498637 4.15173693 6.10884439
Ag 14.30838507 6.25132632 4.10375151
Ag 12.35952598 4.06993340 8.15571978
Ag 12.28078491 6.07574896 10.24305241
Ag 14.40120940 4.06403441 10.22948843
Ag 14.35154175 6.22582445 8.16219344
Ag 12.33052694 4.09793114 12.30172532
Ag 12.27950458 6.16591768 14.33350281
Ag 14.40656674 4.16849432 14.32564984
Ag 14.40360927 6.13790163 12.26035603
Ag 12.29133077 8.22863585 16.34318991
Ag 12.32407836 10.17526051 2.08041977
Ag 14.34049084 8.24239957 1.95875686
Ag 14.33100298 10.22136566 0.04678676
Ag 12.28632982 8.21470190 4.13502335
Ag 12.29355278 10.30766785 6.20597718
Ag 14.34975417 8.24664981 6.21931944
Ag 14.37213401 10.26672424 4.05921681
Ag 12.28162925 8.17855311 8.19424269
Ag 12.20386586 10.18347087 10.30265567
Ag 14.40567489 8.17086858 10.25367814
Ag 14.35751145 10.26398357 8.17162167
Ag 12.35091943 8.23368142 12.35713344
Ag 12.39474981 10.30182414 14.35872322
Ag 14.34854938 8.24012767 14.38540452
Ag 14.35927057 10.32487140 12.31390250
Ag 12.24612812 12.27152796 0.07417190
Ag 12.19038959 14.39221199 2.04963683
Ag 14.37092020 12.29214035 2.02954072
Ag 14.27685602 14.29251023 0.01654433
Ag 12.34786422 12.33840431 4.08428173
Ag 12.38417627 14.34073170 6.24384562
Ag 14.41153537 12.36244925 6.15046114
Ag 14.29183474 14.38307971 4.05878586
Ag 12.34172216 12.23369703 8.17849296
Ag 12.32498911 14.31977566 10.20605413
Ag 14.38361344 12.21838923 10.22834048
Ag 14.39860330 14.35621638 8.25038326
Ag 12.26776541 12.28580528 12.26059514
Ag 12.32818192 14.31557684 14.37336335
Ag 14.39270373 12.30348954 14.37238686
Ag 14.33081124 14.32396748 12.23476466
256
Lattice="16.39280000 0 0 0 16.39280000 0 0 0 16.39280000" Properties=species:S:1:pos:R:3 pbc="T T T" Frame=22
Ag 16.37163198 16.33333969 0.01793729
Ag 16.33031753 2.17980167 2.08681678
Ag 2.05771392 0.04473757 2.04943152
Ag 2.02892198 2.10385221 0.07800138
Ag 16.32993124 0.00379953 4.09793850
Ag 16.29363871 2.03205300 6.10714661
Ag 2.03156789 0.00524428 6.13450497
Ag 2.00470649 2.05560351 4.07665457
Ag 16.33269434 0.00987813 8.21833009
Ag 16.35663367 1.98337270 10.23809331
Ag 2.07001771 0.00704657 10.25436251
Ag 2.03467321 1.97680625 8.24426584
Ag 0.02822273 16.39245380 12.28746284
Ag 0.08538808 2.03102598 14.38797456
Ag 2.09595540 0.05411810 14.44070924
Ag 2.10957504 2.05424242 12.30105948
Ag 16.37616394 4.09331513 16.38403269
Ag 0.01468046 6.12702340 2.03269731
Ag 2.03260476 4.04647395 2.01053128
Ag 2.05937705 6.12488315 16.36300821
Ag 16.36509793 4.07152697 4.17643748
Ag 16.33413451 6.15295320 6.18189268
Ag 2.02259019 4.03889363 6.13811915
Ag 2.03882240 6.07523644 4.11361668
Ag 16.36604260 4.03937413 8.18578719
Ag 0.01317196 6.10545208 10.27010395
Ag 2.02358552 4.07251430 10.23333508
Ag 1.98538270 6.12073387 8.15653274
Ag 0.04558748 4.07247937 12.30746082
Ag 16.35474855 6.17651089 14.37909956
Ag 1.94220051 4.10047620 14.42723512
Ag 1.96746210 6.14503850 12.33642331
Ag 0.00199786 8.14572744 0.01857658
Ag 0.01928602 10.21182862 2.06440213
Ag 2.06511998 8.16475388 2.05963824
Ag 2.02288685 10.21915674 16.37034775
Ag 16.38571730 8.20022674 4.02162336
Ag 16.38012003 10.18495293 6.19829760
Ag 2.03915308 8.20968930 6.09266029
Ag 1.97937827 10.25680463 4.05596846
Ag 0.00417073 8.23357207 8.21427679
Ag 0.04228146 10.29701251 10.26537068
Ag 2.02607178 8.21275057 10.30093967
Ag 2.02452627 10.35213645 8.16711361
Ag 16.38380704 8.18939525 12.34319417
Ag 16.38530347 10.25300879 14.33255681
Ag 2.00448283 8.27931641 14.27667886
Ag 2.07082209 10.24532995 12.29363617
Ag 16.38445799 12.24832655 0.02506021
Ag 0.00382231 14.44394272 2.08327464
Ag 2.07068254 12.36221526 2.04305425
Ag 1.96911408 14.31029717 0.03294293
Ag 16.39279341 12.33285078 4.07437397
Ag 16.35739052 14.37026340 6.14214852
Ag 2.01432887 12.28203019 6.08606960
Ag 2.07895089 14.34661898 4.11449089
Ag 0.07796751 12.30023940 8.10508687
Ag 0.00351147 14.37483028 10.25562074
Ag 2.00322582 12.31562413 10.19733644
Ag 1.99604538 14.41213692 8.17105699
Ag 16.33495830 12.30304771 12.23832496
Ag 16.35106137 14.28787000 14.32256495
Ag 1.98641924 12.27424783 14.31680963
Ag 2.02784083 14.36714770 12.27681303
Ag 4.08237934 16.37502757 0.01370900
Ag 4.06437405 2.03481629 2.07042201
Ag 6.23703933 16.28981418 2.05602661
Ag 6.08647048 2.00987240 0.02741192
Ag 4.11250125 16.33653015 4.06505058
Ag 4.08910701 2.03305086 6.14457978
Ag 6.08754474 16.37804187 6.09568346
Ag 6.20970018 2.01898513 4.10359217
Ag 4.17765741 0.01251489 8.21051193
Ag 4.09197221 2.05822608 10.26380770
Ag 6.19426641 0.03477644 10.30104533
Ag 6.19190765 2.06010108 8.19715689
Ag 4.07931058 0.03681837 12.32007046
Ag 4.18791153 2.10609809 14.37734034
Ag 6.12709999 16.37982911 14.33666288
Ag 6.15388950 2.15988695 12.33606140
Ag 4.10432223 4.07705485 0.02292683
Ag 4.08189035 6.14289712 2.05632306
Ag 6.24453500 4.09296261 2.10914910
Ag 6.19074652 6.18458960 0.05198113
Ag 4.16893543 4.11428929 4.09663593
Ag 4.11832789 6.12289508 6.18987753
Ag 6.17051143 4.15841068 6.12480064
Ag 6.19160937 6.13451202 4.10133979
Ag 4.14079900 4.01034028 8.15314121
Ag 4.01679960 6.14830570 10.18615650
Ag 6.12160240 4.12717594 10.17179653
Ag 6.12077961 6.14585046 8.20404899
Ag 3.99053277 4.14928854 12.32628680
Ag 4.11440567 6.14925462 14.30264256
Ag 6.17199663 4.12393857 14.39023009
Ag 6.14131914 6.11289714 12.30162536
Ag 4.11710058 8.14586202 16.38258743
Ag 4.14145221 10.21096118 2.09195609
Ag 6.19581008 8.17139947 1.97135676
Ag 6.12895888 10.20345825 16.38015465
Ag 4.10810063 8.18101471 4.12049658
Ag 4.09851660 10.23490930 6.10698936
Ag 6.18808888 8.16183025 6.15059151
Ag 6.13282589 10.24445820 4.06344168
Ag 4.15315483 8.24790734 8.12969888
Ag 4.07841648 10.26190994 10.21168675
Ag 6.04001490 8.11873218 10.26285849
Ag 6.21425122 10.23049528 8.16267311
Ag 4.04615488 8.14243141 12.29569270
Ag 4.14469097 10.25299467 14.25165449
Ag 6.22889916 8.22244946 14.30900576
Ag 6.13801493 10.33632687 12.29212837
Ag 4.05992515 12.22493365 16.36411843
Ag 4.10778241 14.33814297 2.03913361
Ag 6.19980583 12.33585118 2.01087722
Ag 6.14333415 14.28648077 16.35347770
Ag 4.14002966 12.32555215 4.09559245
Ag 4.02263349 14.33039435 6.16133794
Ag 6.15186447 12.22799515 6.14679266
Ag 6.13469255 14.30102432 4.16047845
Ag 4.07804477 12.29475985 8.13010869
Ag 4.07639482 14.35955399 10.16415504
Ag 6.12397419 12.32021918 10.25061886
Ag 6.16830039 14.30816904 8.09533697
Ag 4.06370118 12.31037918 12.26279884
Ag 4.03671077 14.36580888 14.36561724
Ag 6.16510712 12.37852131 14.30672207
Ag 6.23069810 14.34292672 12.24635672
Ag 8.11919608 16.36328900 16.35959321
Ag 8.14507559 2.00850267 2.08936629
Ag 10.19558434 0.03177807 1.92653521
Ag 10.17210532 2.04618506 16.35240602
Ag 8.23207098 16.38932784 4.14432372
Ag 8.13753699 2.04802027 6.12256760
Ag 10.26274103 16.36461605 6.20613810
Ag 10.23648484 2.05775914 4.11129461
Ag 8.17125683 16.34291917 8.19841705
Ag 8.22618956 2.01396121 10.16535050
Ag 10.23015785 0.06744050 10.26588343
Ag 10.22736237 2.00011380 8.11625403
Ag 8.14224921 0.08042350 12.41427272
Ag 8.04135552 2.04307778 14.34707755
Ag 10.28609008 0.04302583 14.33863667
Ag 10.20238589 2.05662752 12.27741451
Ag 8.19901339 4.11401067 0.04122629
Ag 8.25560037 6.18152314 2.11447814
Ag 10.29200812 4.03821862 1.96023500
Ag 10.19147060 6.08007007 16.36329006
Ag 8.24603974 4.10556394 4.08355887
Ag 8.16041184 6.13712670 6.20698057
Ag 10.23427035 4.09794860 6.18457723
Ag 10.26741993 6.10724292 4.12495341
Ag 8.19648581 4.04513150 8.19457569
Ag 8.13734869 6.10382637 10.22866989
Ag 10.31414042 4.00470914 10.16815869
Ag 10.26579541 6.09584085 8.25063391
Ag 8.22909335 4.04545990 12.29009777
Ag 8.26110732 6.04459593 14.33664208
Ag 10.26789187 4.02334920 14.28520537
Ag 10.27577777 6.01101052 12.26732232
Ag 8.19196342 8.24976318 16.37002263
Ag 8.20241193 10.27275805 2.10006510
Ag 10.29077754 8.26516161 2.10259047
Ag 10.27845331 10.27697835 16.34250241
Ag 8.26286152 8.20191737 4.11531726
Ag 8.17220397 10.21379293 6.15896991
Ag 10.25547272 8.23108047 6.19637961
Ag 10.23262758 10.28765693 4.16831623
Ag 8.26394720 8.20001036 8.25253165
Ag 8.12710247 10.22904367 10.29284164
Ag 10.24997326 8.12780175 10.32658359
Ag 10.19143579 10.22583302 8.26658828
Ag 8.16191736 8.17210237 12.22970436
Ag 8.12286949 10.33630708 14.36045075
Ag 10.18573420 8.23964414 14.27842390
Ag 10.22603141 10.31427166 12.35143614
Ag 8.18428072 12.30209367 16.36243563
Ag 8.21098523 14.35222533 2.07352275
Ag 10.30239286 12.33161608 2.12518846
Ag 10.19418262 14.33981250 16.38411666
Ag 8.16720170 12.30671841 4.11103332
Ag 8.14371990 14.33502532 6.14448332
Ag 10.22576550 12.25412927 6.22953818
Ag 10.23080093 14.35850548 4.15351369
Ag 8.25610970 12.27141177 8.28774096
Ag 8.17192563 14.35060117 10.24929359
Ag 10.26137703 12.33322835 10.19143654
Ag 10.27603095 14.39077386 8.17031191
Ag 8.23797932 12.40922341 12.30018653
Ag 8.24091677 14.35066647 14.38622242
Ag 10.23567697 12.33975475 14.33426391
Ag 10.30105640 14.34814731 12.24991871
Ag 12.32872021 0.01485673 16.38062597
Ag 12.29487068 2.03170656 2.01800498
Ag 14.37060152 0.03576082 2.02508776
Ag 14.35742985 2.03416499 16.31333054
Ag 12.26883078 0.00809105 4.06855362
Ag 12.33616252 2.03868595 6.15141762
Ag 14.31636166 0.00246200 6.12718265
Ag 14.29183194 2.10146689 4.07065865
Ag 12.36251134 0.03437700 8.21220202
Ag 12.32509279 1.97674130 10.21689366
Ag 14.33601393 16.38247977 10.23858777
Ag 14.39027337 2.06348830 8.17620373
Ag 12.34845567 16.35117703 12.33329199
Ag 12.37426814 2.04547340 14.31182057
Ag 14.34361273 16.30035715 14.30021730
Ag 14.33045547 2.03345222 12.32793930
Ag 12.31423560 4.03686085 16.35163956
Ag 12.25031102 6.20060888 2.01526604
Ag 14.29597148 4.10429741 2.08054663
Ag 14.33516809 6.15640548 0.01972450
Ag 12.25041145 4.10147487 4.15185090
Ag 12.33125269 6.17038157 6.20194548
Ag 14.36405348 4.14754237 6.11959220
Ag 14.33175891 6.23330360 4.12473092
Ag 12.36620315 4.07859853 8.16778754
Ag 12.27036221 6.09661663 10.23469090
Ag 14.40068533 4.08520366 10.22960049
Ag 14.34818501 6.24166295 8.17083680
Ag 12.34081423 4.08665549 12.30169100
Ag 12.28229567 6.15248676 14.31925375
Ag 14.39685303 4.15126081 14.33143825
Ag 14.39033269 6.14021477 12.25482037
Ag 12.29698259 8.21426043 16.37672255
Ag 12.32364159 10.18890962 2.09352935
Ag 14.34390727 8.23111089 1.96834302
Ag 14.33236294 10.22936227 0.02088310
Ag 12.28957054 8.22428195 4.12758447
Ag 12.29981250 10.30977744 6.21720794
Ag 14.34550751 8.25466715 6.21663692
Ag 14.39651611 10.26042987 4.05193563
Ag 12.29960355 8.18902325 8.20220686
Ag 12.19949339 10.19778736 10.30015790
Ag 14.41430301 8.15021597 10.25373016
Ag 14.36586107 10.27350438 8.15521745
Ag 12.34459101 8.22454928 12.35644272
Ag 12.38162567 10.30622794 14.35327938
Ag 14.36174853 8.24698792 14.35642452
Ag 14.34698385 10.32506927 12.32157376
Ag 12.25274682 12.29106626 0.08166654
Ag 12.19378667 14.40061022 2.05624351
Ag 14.38373330 12.29964739 2.01559966
Ag 14.27719033 14.29311790 0.01321122
Ag 12.33787339 12.32049566 4.07740083
Ag 12.38260000 14.34488446 6.23350280
Ag 14.40962537 12.36420354 6.15562541
Ag 14.29200844 14.39831190 4.06928595
Ag 12.33761397 12.24493301 8.17893100
Ag 12.32490383 14.31870905 10.22083500
Ag 14.37292614 12.21624928 10.24517156
Ag 14.40742899 14.36489619 8.24719746
Ag 12.25395324 12.27786243 12.27956172
Ag 12.33949462 14.31572011 14.35686359
Ag 14.39558567 12.28828252 14.36831211
Ag 14.31269558 14.32406067 12.22131286
256
Lattice="16.39280000 0 0 0 16.39280000 0 0 0 16.39280000" Properties=species:S:1:pos:R:3 pbc="T T T" Frame=23
Ag 16.38167593 16.33943432 16.37863085
Ag 16.32819007 2.17936448 2.06637922
Ag 2.06968951 0.04299434 2.04142227
Ag 2.02225428 2.10440622 0.05871704
Ag 16.33614605 0.00825214 4.10110074
Ag 16.31338597 2.03166025 6.12135941
Ag 2.05279361 16.37901573 6.13898538
Ag 2.00879754 2.04385507 4.06877756
Ag 16.34134686 0.01576069 8.21801614
Ag 16.35351477 1.99208466 10.25262652
Ag 2.07797995 16.37716680 10.24557181
Ag 2.01616536 1.98891381 8.24549324
Ag 0.01911842 16.38809475 12.28342957
Ag 0.08737689 2.03312400 14.38442220
Ag 2.08942275 0.04754395 14.43361496
Ag 2.10953674 2.05269622 12.30420831
Ag 16.37877239 4.08521902 16.37958132
Ag 0.03330277 6.11494427 2.03333109
Ag 2.02772090 4.04447649 2.05250395
Ag 2.05670693 6.15149595 16.38406952
Ag 16.36974763 4.05335090 4.17469759
Ag 16.33467286 6.12531293 6.17977049
Ag 2.02574278 4.05507244 6.14557605
Ag 2.03641348 6.06221684 4.09676669
Ag 16.37201394 4.06353508 8.19177987
Ag 0.01213624 6.12472642 10.26292537
Ag 2.02755106 4.08310775 10.23925833
Ag 1.98475370 6.13104032 8.15758093
Ag 0.04140985 4.07809592 12.29984743
Ag 16.35314288 6.16410332 14.36284201
Ag 1.95049517 4.11185498 14.41296179
Ag 1.97732833 6.15207176 12.32052635
Ag 16.38228441 8.14505583 0.01151816
Ag 0.00206210 10.21161938 2.06317181
Ag 2.07344303 8.16462168 2.03445309
Ag 2.01341527 10.21414442 0.00228520
Ag 0.00047780 8.17132494 4.02672735
Ag 0.01537264 10.17408292 6.20112875
Ag 2.03135433 8.20063558 6.08501123
Ag 1.99175899 10.27732793 4.05233277
Ag 16.39089015 8.25906340 8.19814914
Ag 0.01204746 10.29159917 10.26192753
Ag 2.02135588 8.20944600 10.28450427
Ag 2.03121105 10.33274610 8.17577537
Ag 16.38136270 8.20042029 12.33611299
Ag 0.00258967 10.25795213 14.32698992
Ag 2.00603407 8.29632300 14.29231802
Ag 2.05219482 10.25684521 12.28078909
Ag 16.39078916 12.25742718 0.02155081
Ag 0.03472624 14.45721884 2.06943760
Ag 2.03502284 12.34971453 2.06792951
Ag 1.99996621 14.32006382 0.02060215
Ag 16.39006729 12.33132312 4.07865577
Ag 16.36806670 14.37035158 6.13489597
Ag 2.02960968 12.28607951 6.08876540
Ag 2.07347544 14.33238026 4.11335764
Ag 0.08812091 12.30630469 8.11253351
Ag 16.38653839 14.35323622 10.24249375
Ag 2.00167976 12.31444760 10.21242399
Ag 1.98673831 14.41422988 8.18841608
Ag 16.33235688 12.29900997 12.24200845
Ag 16.33739973 14.28451664 14.30603886
Ag 1.97953219 12.29205715 14.31461284
Ag 2.01490226 14.34212001 12.28536980
Ag 4.08796535 16.37342788 0.00818292
Ag 4.07439847 2.03454908 2.07625077
Ag 6.21531165 16.28967278 2.07002795
Ag 6.08266511 2.00267928 0.03240519
Ag 4.10869746 16.33392898 4.06518132
Ag 4.08923080 2.02823591 6.15625446
Ag 6.10148778 16.38070306 6.10114208
Ag 6.20313681 2.02998342 4.12688226
Ag 4.20519308 0.01488370 8.20408729
Ag 4.09720223 2.07144665 10.26131826
Ag 6.17664379 0.04966286 10.29600775
Ag 6.20576051 2.05724349 8.19458323
Ag 4.09157229 0.04256078 12.32852839
Ag 4.18955743 2.08950557 14.38383933
Ag 6.12545985 16.36376875 14.34939614
Ag 6.15305799 2.14910761 12.33351079
Ag 4.08867995 4.07889370 0.03333722
Ag 4.09015211 6.13798026 2.05711915
Ag 6.24122226 4.08447946 2.11025183
Ag 6.17628762 6.18000639 0.05301820
Ag 4.16054999 4.12057492 4.10551089
Ag 4.12818447 6.12461843 6.17512833
Ag 6.16836997 4.14968129 6.13994110
Ag 6.19828586 6.13743712 4.10481895
Ag 4.15486153 4.01903749 8.15245997
Ag 4.01125767 6.17211866 10.20374549
Ag 6.12547874 4.10246507 10.17258090
Ag 6.11981037 6.14493808 8.18424254
Ag 4.00019530 4.14309669 12.34676488
Ag 4.12233916 6.14032634 14.30624953
Ag 6.16340126 4.10815705 14.40505679
Ag 6.14048519 6.12698977 12.31295224
Ag 4.11226061 8.14014116 16.37556137
Ag 4.12024604 10.20540748 2.07451287
Ag 6.19052081 8.16860498 1.99098401
Ag 6.10673771 10.21048845 16.36726199
Ag 4.08518356 8.17412534 4.12362928
Ag 4.07753801 10.22056840 6.10274199
Ag 6.17379251 8.14398383 6.16900985
Ag 6.11424781 10.22778059 4.05209201
Ag 4.13594099 8.23780352 8.14647981
Ag 4.07985684 10.27349991 10.19582539
Ag 6.04658004 8.11663638 10.24852422
Ag 6.21551996 10.24913521 8.17399840
Ag 4.03416682 8.16716340 12.29612637
Ag 4.14443643 10.25925955 14.25182948
Ag 6.23272840 8.21389370 14.30850804
Ag 6.13019852 10.32695205 12.33439849
Ag 4.05889165 12.22765228 16.37818167
Ag 4.09213169 14.34610309 2.03250950
Ag 6.19267236 12.33827612 2.01257586
Ag 6.13656599 14.28448109 16.35236537
Ag 4.12633108 12.32623105 4.10333071
Ag 4.02523248 14.34498283 6.16612689
Ag 6.13133831 12.24286366 6.15821529
Ag 6.12733442 14.30721352 4.16052656
Ag 4.08963988 12.31469473 8.15687732
Ag 4.07517239 14.35700811 10.17400134
Ag 6.13184848 12.30192275 10.25045847
Ag 6.18804707 14.31558996 8.08842349
Ag 4.06180336 12.28913781 12.26686298
Ag 4.05490351 14.36102483 14.36710721
Ag 6.17016138 12.37946094 14.29982723
Ag 6.25053300 14.35356829 12.25810674
Ag 8.12869697 16.35227544 16.36002483
Ag 8.15918447 2.00704390 2.08416079
Ag 10.20032468 0.01961863 1.94039019
Ag 10.15128129 2.05416432 16.35572952
Ag 8.21523961 16.37636805 4.12280906
Ag 8.13482437 2.03167876 6.12090491
Ag 10.22179219 16.36168880 6.17900646
Ag 10.24964216 2.03705138 4.10318513
Ag 8.19188618 16.34861207 8.19487718
Ag 8.25343164 2.02049190 10.15844665
Ag 10.23558487 0.06000060 10.25821672
Ag 10.23626705 2.02304868 8.10691352
Ag 8.15293635 0.09461367 12.39977420
Ag 8.06789626 2.05768278 14.37109250
Ag 10.28553810 0.03355017 14.34192694
Ag 10.20780634 2.06064649 12.26714075
Ag 8.19297129 4.09478642 0.02579717
Ag 8.24263346 6.17847056 2.11368580
Ag 10.30004653 4.04418554 1.97812197
Ag 10.20272203 6.07948408 16.37035838
Ag 8.26029212 4.07880878 4.10494022
Ag 8.18719953 6.13013897 6.18596862
Ag 10.23287810 4.08315218 6.16875659
Ag 10.25892221 6.10863304 4.09363032
Ag 8.18584748 4.05484259 8.18477284
Ag 8.13491585 6.11221025 10.24020743
Ag 10.32238313 4.01918974 10.17207465
Ag 10.26083979 6.08550406 8.24746100
Ag 8.22243934 4.05346090 12.29587958
Ag 8.26202375 6.06568545 14.36478428
Ag 10.27480863 4.03456827 14.26766909
Ag 10.28761039 6.01425432 12.27602057
Ag 8.19471947 8.23601896 16.38314894
Ag 8.22737745 10.27377663 2.09329219
Ag 10.28118378 8.26211658 2.08109405
Ag 10.27400269 10.28514989 16.33790200
Ag 8.23534724 8.20197786 4.11276347
Ag 8.16588082 10.23021858 6.16695597
Ag 10.25674138 8.21597047 6.20055614
Ag 10.24196554 10.29328219 4.16596938
Ag 8.25922433 8.22603041 8.23655442
Ag 8.15348439 10.21847156 10.30054847
Ag 10.25259241 8.12261360 10.31189249
Ag 10.19226011 10.21929248 8.26588287
Ag 8.16591124 8.17562733 12.22588006
Ag 8.13355688 10.34739299 14.36130163
Ag 10.19965608 8.24597185 14.29266777
Ag 10.22490552 10.33112960 12.34797858
Ag 8.16583387 12.28624557 16.35245280
Ag 8.20718634 14.34282511 2.07018120
Ag 10.29514656 12.35790384 2.12629711
Ag 10.21312421 14.34262877 0.02144358
Ag 8.16517693 12.30961185 4.11223934
Ag 8.17724946 14.32425775 6.12861586
Ag 10.21908125 12.24366796 6.22963341
Ag 10.24226213 14.35385658 4.16341165
Ag 8.26754693 12.27599882 8.27998247
Ag 8.17093979 14.34283006 10.24337590
Ag 10.27178312 12.31521385 10.17969506
Ag 10.28383692 14.38445784 8.18755008
Ag 8.25259282 12.40655291 12.29029822
Ag 8.22615331 14.38549596 14.38188248
Ag 10.22810602 12.34864700 14.33988271
Ag 10.27824400 14.35022512 12.24653618
Ag 12.33184669 0.01006244 16.39273860
Ag 12.27389177 2.01490680 2.03008089
Ag 14.36395284 0.04448562 2.01104772
Ag 14.33748240 2.03717472 16.30915864
Ag 12.26909740 0.01621959 4.06118359
Ag 12.34453120 2.04933670 6.14843277
Ag 14.28360322 0.02683478 6.13303998
Ag 14.29407423 2.09592366 4.08089527
Ag 12.34495016 0.02289357 8.19437019
Ag 12.32164388 1.99574862 10.23911564
Ag 14.32699814 16.36734116 10.22134773
Ag 14.37540591 2.06253390 8.18183793
Ag 12.36491378 16.35028488 12.32560624
Ag 12.35868535 2.03864588 14.31791174
Ag 14.34547625 16.29828429 14.29277564
Ag 14.32554598 2.02402032 12.31558692
Ag 12.31369666 4.03215823 16.34277074
Ag 12.24595958 6.19175962 1.99690381
Ag 14.30204800 4.08974701 2.09160504
Ag 14.33781294 6.16075424 0.01818962
Ag 12.23859474 4.11271437 4.13595179
Ag 12.35078368 6.17069941 6.19903402
Ag 14.35655719 4.14020962 6.13428097
Ag 14.35406778 6.21013329 4.14026340
Ag 12.37054235 4.08685605 8.18156813
Ag 12.26914604 6.12124190 10.22845692
Ag 14.39405635 4.10609456 10.23181804
Ag 14.34678540 6.24440915 8.18796138
Ag 12.35189098 4.07213358 12.29724636
Ag 12.28626637 6.13893640 14.30860275
Ag 14.38384811 4.12901573 14.33671540
Ag 14.37176881 6.14205071 12.25453776
Ag 12.29639666 8.19777345 0.01296786
Ag 12.32023869 10.21323886 2.10367327
Ag 14.34738986 8.21201269 1.98863837
Ag 14.33709601 10.24230783 16.38590090
Ag 12.29476742 8.23346923 4.12443457
Ag 12.30702849 10.30484709 6.21746743
Ag 14.33916934 8.26041544 6.20148071
Ag 14.41654283 10.25384787 4.05334878
Ag 12.31423977 8.20446724 8.21664788
Ag 12.20595807 10.21401653 10.29282844
Ag 14.41530628 8.14011313 10.25537413
Ag 14.37380950 10.28176164 8.15087355
Ag 12.33499069 8.21212164 12.35045749
Ag 12.35761354 10.30868879 14.34898941
Ag 14.37386734 8.24783065 14.32803660
Ag 14.33440604 10.31358992 12.32401565
Ag 12.26320806 12.31084970 0.08329359
Ag 12.20686909 14.40863676 2.06120552
Ag 14.39226127 12.30863757 2.00719024
Ag 14.28481418 14.29849381 0.01303707
Ag 12.32736604 12.30105853 4.07709302
Ag 12.37238016 14.34766210 6.21582933
Ag 14.40308905 12.35774492 6.15668760
Ag 14.29489385 14.40870840 4.07871502
Ag 12.33105199 12.26374140 8.18812669
Ag 12.32203596 14.31981979 10.23271333
Ag 14.35611058 12.22162816 10.25448060
Ag 14.41168519 14.36667227 8.24168530
Ag 12.24630474 12.27369738 12.29900051
Ag 12.34333820 14.31321510 14.33960812
Ag 14.39134011 12.27512934 14.36369936
Ag 14.29855142 14.32072498 12.21325260
256
Lattice="16.39280000 0 0 0 16.39280000 0 0 0 16.39280000" Properties=species:S:1:pos:R:3 pbc="T T T" Frame=24
Ag 16.39041047 16.35243523 16.34533328
Ag 16.32827708 2.16172792 2.04300899
Ag 2.07598595 0.03861938 2.03412259
Ag 2.01932238 2.09596776 0.03551278
Ag 16.34731555 0.01697614 4.10400450
Ag 16.34121361 2.02878985 6.13927413
Ag 2.07108465 16.36609515 6.14326948
Ag 2.01679830 2.03024500 4.06684546
Ag 16.35482636 0.02158280 8.21208975
Ag 16.35468115 2.00604038 10.27071946
Ag 2.08424215 16.35690677 10.23844416
Ag 2.00041482 2.00473007 8.24025441
Ag 0.00942353 16.38406932 12.28297359
Ag 0.07710363 2.03202967 14.37405496
Ag 2.07945477 0.03660432 14.41829591
Ag 2.10220098 2.04995330 12.30944295
Ag 16.37562988 4.08270170 16.37992675
Ag 0.04694406 6.10037319 2.03680969
Ag 2.02662762 4.05275719 2.09778827
Ag 2.05427329 6.17746645 0.01065708
Ag 16.37463723 4.04431159 4.16488911
Ag 16.34270766 6.10464993 6.17385924
Ag 2.03200242 4.07083597 6.15596738
Ag 2.03438462 6.05456093 4.08232245
Ag 16.38028504 4.08989869 8.19788178
Ag 0.01306193 6.14584369 10.25094199
Ag 2.03289974 4.09321464 10.24248175
Ag 1.99011687 6.14376877 8.16006956
Ag 0.03178253 4.08050502 12.29234593
Ag 16.35441613 6.15259032 14.34539822
Ag 1.97332309 4.12418256 14.39228367
Ag 1.99156877 6.15956701 12.30570474
Ag 16.37244512 8.15088861 0.00228490
Ag 16.37932480 10.21496134 2.05450546
Ag 2.08083424 8.16592495 2.01152791
Ag 2.00902674 10.21060912 0.02794216
Ag 0.00933178 8.14135757 4.03947942
Ag 0.04307215 10.17411440 6.18885280
Ag 2.02392045 8.18719284 6.08225427
Ag 2.01034129 10.29457938 4.05163753
Ag 16.39048028 8.27695732 8.18706057
Ag 16.37320844 10.27868527 10.25514756
Ag 2.01604694 8.20733442 10.26014607
Ag 2.04473854 10.30006633 8.18567258
Ag 16.37753496 8.21437287 12.32204951
Ag 0.01039357 10.26399742 14.32353941
Ag 2.01367868 8.30114901 14.31681939
Ag 2.03127782 10.27230824 12.26478134
Ag 0.00594828 12.27065287 0.01796901
Ag 0.06020234 14.45857240 2.05575841
Ag 2.00069230 12.33027209 2.09065847
Ag 2.03492956 14.33049633 0.00393543
Ag 16.38454268 12.33050053 4.08365050
Ag 16.38105003 14.37417414 6.12542538
Ag 2.04743568 12.29119210 6.09282212
Ag 2.06309869 14.32297189 4.10915013
Ag 0.08551209 12.31541909 8.12828354
Ag 16.37741861 14.33033130 10.22999254
Ag 2.00607181 12.31583345 10.23056697
Ag 1.98335330 14.41212555 8.20464412
Ag 16.33805150 12.29665296 12.25123013
Ag 16.32920546 14.28754775 14.29230267
Ag 1.97901767 12.30920671 14.31424204
Ag 2.00597455 14.31839105 12.29574297
Ag 4.09590478 16.37276551 0.00645238
Ag 4.09309265 2.03525103 2.08405319
Ag 6.18378052 16.29691341 2.08357560
Ag 6.08646337 1.99837912 0.04387510
Ag 4.10394240 16.33847627 4.06751283
Ag 4.08990474 2.02361895 6.16285248
Ag 6.12034680 16.38327210 6.11024134
Ag 6.18571054 2.04171801 4.14550318
Ag 4.22433342 0.01719955 8.19808792
Ag 4.10484171 2.08351521 10.25812910
Ag 6.15705498 0.06207974 10.28888837
Ag 6.21419066 2.04918485 8.18941062
Ag 4.10734518 0.04215750 12.33478231
Ag 4.17761134 2.07099682 14.38773414
Ag 6.11941664 16.34726055 14.36187292
Ag 6.14639816 2.13396951 12.32166136
Ag 4.07597105 4.08624372 0.04394969
Ag 4.10124974 6.13076253 2.05913172
Ag 6.22865672 4.07761729 2.10541190
Ag 6.16216389 6.16763445 0.04720643
Ag 4.14704108 4.12130481 4.11403035
Ag 4.13032645 6.12790900 6.15725090
Ag 6.16679850 4.13227792 6.15407666
Ag 6.20220776 6.14461105 4.10675248
Ag 4.15816421 4.03423497 8.15480785
Ag 4.00757883 6.18861996 10.22245823
Ag 6.12919511 4.07750173 10.18455037
Ag 6.12230658 6.14416764 8.16756341
Ag 4.01797348 4.13482571 12.36209385
Ag 4.12606707 6.13410067 14.31836542
Ag 6.15195731 4.09874425 14.41845510
Ag 6.13964201 6.13725839 12.32226311
Ag 4.10507968 8.14095738 16.36446751
Ag 4.09464527 10.20345697 2.05304407
Ag 6.18181828 8.17051675 2.02182728
Ag 6.08628261 10.22296927 16.35684400
Ag 4.06453773 8.16434439 4.12286155
Ag 4.05775185 10.20943183 6.10046315
Ag 6.15976107 8.13262244 6.18323722
Ag 6.10119003 10.21034099 4.04543741
Ag 4.10873769 8.22611071 8.16572345
Ag 4.08320681 10.28238048 10.18293887
Ag 6.06047128 8.12469262 10.23480150
Ag 6.20880406 10.26650131 8.19126397
Ag 4.02942138 8.19467237 12.29579813
Ag 4.13722640 10.26415331 14.26391098
Ag 6.22982430 8.20037807 14.30878514
Ag 6.12665462 10.31038102 12.36635010
Ag 4.05904496 12.23442880 16.39182938
Ag 4.07783108 14.35118633 2.02432578
Ag 6.17871429 12.33468915 2.01742247
Ag 6.12702289 14.28840459 16.35568208
Ag 4.10965652 12.32151370 4.10794138
Ag 4.03450800 14.35912706 6.17146616
Ag 6.11250099 12.25945865 6.16813825
Ag 6.12130927 14.31522508 4.15553079
Ag 4.10046359 12.33322658 8.18522081
Ag 4.07949844 14.35335356 10.19045536
Ag 6.14022753 12.28441140 10.24717220
Ag 6.20338009 14.32320878 8.09302050
Ag 4.06097885 12.27631030 12.27067312
Ag 4.07400429 14.35129138 14.36399462
Ag 6.16858995 12.37691647 14.29399812
Ag 6.25411315 14.36809719 12.27427733
Ag 8.14224789 16.34654646 16.36326577
Ag 8.17798772 2.00675063 2.07385569
Ag 10.20522838 0.00804662 1.96467151
Ag 10.13740961 2.05952800 16.35706563
Ag 8.19881651 16.36180202 4.09957984
Ag 8.14062115 2.01488452 6.12327726
Ag 10.18616362 16.36246722 6.14705799
Ag 10.26246176 2.01451634 4.09554963
Ag 8.21045495 16.35646448 8.18874520
Ag 8.27375453 2.03209160 10.16105782
Ag 10.24446455 0.04257086 10.24965970
Ag 10.24915198 2.04604935 8.10228053
Ag 8.17019030 0.10099254 12.37383823
Ag 8.10704040 2.07345823 14.39980079
Ag 10.28331761 0.02141816 14.34528582
Ag 10.22098894 2.06071828 12.25994964
Ag 8.18404428 4.07316300 0.01169244
Ag 8.23142081 6.17240050 2.10514464
Ag 10.30261989 4.05319872 2.00357979
Ag 10.22130720 6.08700491 16.37824035
Ag 8.27287245 4.05325105 4.12642695
Ag 8.22104997 6.12621516 6.16375986
Ag 10.23441749 4.06995531 6.15331414
Ag 10.25207134 6.11678168 4.06646098
Ag 8.17819749 4.07046740 8.17481763
Ag 8.13960697 6.11925607 10.25114240
Ag 10.32477553 4.03549286 10.18105697
Ag 10.25341839 6.08038519 8.23806657
Ag 8.21114064 4.06542543 12.29565705
Ag 8.25663084 6.09467453 14.38687462
Ag 10.28076994 4.04452635 14.26076539
Ag 10.29448950 6.02846199 12.28274524
Ag 8.20455485 8.22051160 0.00396986
Ag 8.25174399 10.27505141 2.08044744
Ag 10.26627719 8.25529004 2.05580635
Ag 10.26693824 10.29177960 16.33947306
Ag 8.20593581 8.20295284 4.11229214
Ag 8.16262784 10.24751026 6.17115814
Ag 10.25933514 8.19715144 6.20131296
Ag 10.25301865 10.29674840 4.16136826
Ag 8.24561785 8.24239689 8.22168474
Ag 8.18211817 10.21146992 10.30845752
Ag 10.25477107 8.12153548 10.29634469
Ag 10.20139553 10.21235001 8.26250414
Ag 8.17230998 8.17848105 12.23002643
Ag 8.15114953 10.35030188 14.35586831
Ag 10.21579194 8.24786288 14.30917064
Ag 10.22036520 10.33958649 12.34042621
Ag 8.15277695 12.27207557 16.35130370
Ag 8.20590447 14.33027776 2.06630311
Ag 10.27855505 12.37526505 2.12204469
Ag 10.23557470 14.34549696 0.04680627
Ag 8.16603586 12.30969870 4.11469222
Ag 8.21493568 14.31181802 6.11628764
Ag 10.21516785 12.24102752 6.22447874
Ag 10.25650449 14.34758385 4.17238909
Ag 8.26739360 12.28401481 8.26379837
Ag 8.17630404 14.34131099 10.23322729
Ag 10.28245236 12.29715716 10.17736728
Ag 10.28995765 14.37490336 8.20758042
Ag 8.26429219 12.39233766 12.27871507
Ag 8.21195025 14.41899023 14.37054505
Ag 10.22467286 12.35735783 14.34916302
Ag 10.25402269 14.35920734 12.24662514
Ag 12.33016092 0.00415871 0.00754167
Ag 12.25424539 2.00100568 2.04060621
Ag 14.35472609 0.05228878 1.99899255
Ag 14.32331187 2.03945708 16.31122663
Ag 12.26763752 0.02458312 4.05800981
Ag 12.34564310 2.06188175 6.14446411
Ag 14.25819900 0.04827588 6.13879039
Ag 14.29612314 2.08464421 4.09268411
Ag 12.32159658 0.00941569 8.17760637
Ag 12.31878816 2.01985650 10.26199380
Ag 14.32003132 16.35604481 10.20962328
Ag 14.35605801 2.06040120 8.18973788
Ag 12.36962024 16.35382577 12.31149148
Ag 12.33524496 2.02964649 14.32410435
Ag 14.35304495 16.30388394 14.29189734
Ag 14.32974095 2.01598736 12.30122846
Ag 12.31185188 4.03373087 16.33573888
Ag 12.24597186 6.17691701 1.98477306
Ag 14.30468728 4.08369464 2.09808522
Ag 14.33789936 6.16067370 0.01416494
Ag 12.23259982 4.12466622 4.11638915
Ag 12.36154904 6.17072658 6.19132427
Ag 14.34403253 4.12890703 6.15145431
Ag 14.37255403 6.18291611 4.14812094
Ag 12.37158913 4.09470680 8.19571606
Ag 12.27681348 6.14708817 10.22547699
Ag 14.38263702 4.12523783 10.23557689
Ag 14.34852147 6.23514071 8.20993954
Ag 12.36247680 4.05648425 12.28834227
Ag 12.29200797 6.12689065 14.30350325
Ag 14.36960276 4.10391586 14.34010849
Ag 14.35029805 6.14283780 12.25966562
Ag 12.29153217 8.18290100 0.03344545
Ag 12.31531734 10.24484235 2.10845378
Ag 14.35012249 8.18850698 2.01695721
Ag 14.34336032 10.25624707 16.36034848
Ag 12.30127913 8.24010856 4.12431330
Ag 12.31401336 10.29440993 6.20822637
Ag 14.33279273 8.26281388 6.17611307
Ag 14.43067104 10.24760582 4.06367239
Ag 12.32445859 8.22342250 8.23496355
Ag 12.22283982 10.22986729 10.28222344
Ag 14.40823227 8.14275781 10.25879933
Ag 14.38031381 10.28952490 8.15816645
Ag 12.32185263 8.19857210 12.33896065
Ag 12.32486357 10.30728707 14.34733677
Ag 14.38187321 8.24282085 14.30369527
Ag 14.32200104 10.29195593 12.32069882
Ag 12.27599997 12.32871269 0.07874599
Ag 12.23022127 14.41489798 2.06596192
Ag 14.39638423 12.31892258 2.00598365
Ag 14.29974051 14.30879629 0.01460451
Ag 12.31898551 12.28286846 4.08351420
Ag 12.35373671 14.34834566 6.19222144
Ag 14.39331437 12.34428072 6.15382465
Ag 14.30078457 14.41348088 4.08566717
Ag 12.32333081 12.28773508 8.20289761
Ag 12.31541520 14.32256579 10.24074043
Ag 14.33408082 12.23371261 10.25595855
Ag 14.41006566 14.36124452 8.23205168
Ag 12.24487610 12.27474744 12.31660501
Ag 12.33941817 14.30880803 14.32386775
Ag 14.38013817 12.26575587 14.35868087
Ag 14.29106420 14.31335055 12.21144557
256
Lattice="16.39280000 0 0 0 16.39280000 0 0 0 16.39280000" Properties=species:S:1:pos:R:3 pbc="T T T" Frame=25
Ag 0.00430181 16.36982850 16.31499956
Ag 16.33128704 2.12854006 2.01890034
Ag 2.07687990 0.03344886 2.02716159
Ag 2.02137353 2.08191652 0.01227995
Ag 16.36172882 0.02876297 4.10596862
Ag 16.37387414 2.02480186 6.15956785
Ag 2.08507984 16.36045946 6.14764886
Ag 2.02815412 2.01564585 4.07190328
Ag 16.37034833 0.02662478 8.20217605
Ag 16.35964743 2.02342506 10.28897984
Ag 2.08836153 16.34226804 10.23479505
Ag 1.99003164 2.02293213 8.23062435
Ag 0.00037672 16.37924059 12.28408570
Ag 0.05599166 2.03006790 14.35689321
Ag 2.06828260 0.02106098 14.39461623
Ag 2.08929762 2.04592047 12.31515236
Ag 16.36933641 4.08602103 16.38330065
Ag 0.05320816 6.08516070 2.04180022
Ag 2.02982673 4.06588135 2.13845212
Ag 2.05156475 6.19778613 0.02504602
Ag 16.37868613 4.04201534 4.14974190
Ag 16.35662055 6.09251427 6.16597690
Ag 2.04127240 4.08472042 6.16755334
Ag 2.03334267 6.05415605 4.07273613
Ag 16.38846549 4.11500551 8.20487311
Ag 0.01539544 6.16718901 10.23674516
Ag 2.03977260 4.10262120 10.24355255
Ag 2.00156259 6.15838259 8.16366870
Ag 0.01764148 4.08120110 12.28554360
Ag 16.35845232 6.14264106 14.32789940
Ag 2.00639532 4.13646888 14.36875379
Ag 2.00857691 6.16792454 12.29347287
Ag 16.36428795 8.16208116 16.38465662
Ag 16.36627722 10.21946070 2.04108371
Ag 2.08505204 8.16874358 1.99525724
Ag 2.00911521 10.21074426 0.05109172
Ag 0.02038834 8.11420881 4.05717029
Ag 0.06775095 10.18628609 6.16321684
Ag 2.01771762 8.16916604 6.08435635
Ag 2.03142876 10.30457086 4.05328061
Ag 0.00075738 8.28404796 8.18061417
Ag 16.34301399 10.26183981 10.24588720
Ag 2.01031894 8.20826711 10.23115838
Ag 2.06234740 10.26092301 8.19620101
Ag 16.37499309 8.22891193 12.30289210
Ag 0.01585631 10.27089656 14.32243660
Ag 2.02554280 8.29413431 14.34557424
Ag 2.01009419 10.28862842 12.24756592
Ag 0.01517624 12.28794343 0.01366117
Ag 0.07734101 14.45030466 2.04209950
Ag 1.97150339 12.30741073 2.10665145
Ag 2.06996386 14.34000109 16.37751682
Ag 16.37589478 12.33036255 4.09028672
Ag 0.00121446 14.38082875 6.11562369
Ag 2.06577892 12.29715162 6.10106695
Ag 2.05004023 14.31996031 4.10281319
Ag 0.07271154 12.32395320 8.14927086
Ag 16.36903577 14.30871975 10.22058244
Ag 2.01494670 12.31770221 10.24872362
Ag 1.98748287 14.40519050 8.21752230
Ag 16.34812916 12.29436643 12.26351566
Ag 16.32621077 14.29600737 14.28295422
Ag 1.98555233 12.32303514 14.31703636
Ag 2.00205725 14.29957787 12.30619296
Ag 4.10451929 16.37370884 0.00777142
Ag 4.11683973 2.03718443 2.09257089
Ag 6.14715129 16.31082460 2.09420052
Ag 6.09739193 1.99678445 0.05956332
Ag 4.09824990 16.34909398 4.07294646
Ag 4.09040659 2.02010603 6.16491977
Ag 6.14339354 16.38445248 6.12105365
Ag 6.16057855 2.05294030 4.15735870
Ag 4.23227048 0.01889036 8.19393076
Ag 4.11150214 2.09282454 10.25410128
Ag 6.13947775 0.07049355 10.28018933
Ag 6.21742994 2.03766248 8.18278814
Ag 4.12365560 0.03547648 12.33788320
Ag 4.15419717 2.05217786 14.38982075
Ag 6.11254343 16.33554966 14.37263077
Ag 6.13760698 2.11535427 12.30590594
Ag 4.06555951 4.09694472 0.05422931
Ag 4.11427755 6.12242362 2.06256501
Ag 6.20952595 4.07245137 2.09677011
Ag 6.14949985 6.15013280 0.03695875
Ag 4.13061994 4.11635455 4.12234909
Ag 4.12431023 6.13207916 6.13811420
Ag 6.16632035 4.10920261 6.16464254
Ag 6.20303728 6.15239968 4.10810500
Ag 4.15082016 4.05483957 8.16059527
Ag 4.00822202 6.19612390 10.24131428
Ag 6.13354485 4.05659157 10.20556758
Ag 6.12852921 6.14283472 8.15718283
Ag 4.04269411 4.12476556 12.37054987
Ag 4.12466970 6.13200713 14.33709824
Ag 6.13896635 4.09455399 14.42837787
Ag 6.13850897 6.14331248 12.32851840
Ag 4.09827266 8.14828598 16.35083668
Ag 4.06777000 10.20513112 2.03037393
Ag 6.16972908 8.17662300 2.05727028
Ag 6.07087980 10.23758778 16.34985382
Ag 4.04714833 8.15276590 4.11731519
Ag 4.04178635 10.20197070 6.10191253
Ag 6.14695128 8.13021334 6.19245264
Ag 6.09322768 10.19497205 4.04420105
Ag 4.07505338 8.21325067 8.18495013
Ag 4.08826086 10.28715976 10.17569967
Ag 6.08042298 8.14223547 10.22298202
Ag 6.19450386 10.28063958 8.21169692
Ag 4.03150831 8.22346273 12.29470148
Ag 4.12111086 10.26799711 14.28758368
Ag 6.22091521 8.18419582 14.31172338
Ag 6.12875758 10.28773939 12.38361208
Ag 4.05874532 12.24505507 0.01143709
Ag 4.06499978 14.35144304 2.01681668
Ag 6.15895684 12.32488987 2.02573497
Ag 6.11660823 14.29691545 16.36416650
Ag 4.09275608 12.31268279 4.10832197
Ag 4.04992175 14.37091161 6.17707835
Ag 6.09629451 12.27595108 6.17465871
Ag 6.11676829 14.32322075 4.14675816
Ag 4.10824951 12.34916400 8.21210932
Ag 4.09019321 14.34921067 10.21330117
Ag 6.14998239 12.26974216 10.24396566
Ag 6.21500211 14.33127600 8.10834987
Ag 4.06233935 12.27233125 12.27383451
Ag 4.09203171 14.33741000 14.35548133
Ag 6.16197428 12.37165497 14.29005664
Ag 6.24312204 14.38407630 12.29075316
Ag 8.15789947 16.34639170 16.37175190
Ag 8.19782533 2.00746306 2.06130953
Ag 10.20955071 16.38994684 1.99713170
Ag 10.13485103 2.06115032 16.35881443
Ag 8.18301832 16.34723552 4.07566613
Ag 8.15489716 1.99898369 6.12885868
Ag 10.16014650 16.36753989 6.11495123
Ag 10.27264032 1.99236487 4.08952924
Ag 8.22619364 16.36564024 8.18170777
Ag 8.28609099 2.04742106 10.17136579
Ag 10.25675552 0.01870077 10.24046762
Ag 10.26527499 2.06658268 8.10293333
Ag 8.19110052 0.10173053 12.34010166
Ag 8.15171648 2.08592477 14.42488746
Ag 10.28025391 0.00761210 14.34838415
Ag 10.24021721 2.05739554 12.25698092
Ag 8.17421046 4.05469949 0.00199159
Ag 8.22155742 6.16210026 2.08936077
Ag 10.29817685 4.06381503 2.03211099
Ag 10.24402016 6.09957056 16.38589291
Ag 8.28095168 4.03083454 4.14422788
Ag 8.25715908 6.12542786 6.14155858
Ag 10.24045853 4.05998153 6.13904109
Ag 10.24736550 6.13190861 4.04522794
Ag 8.17460367 4.09016185 8.16602019
Ag 8.15002865 6.12437998 10.25969328
Ag 10.32090078 4.05430264 10.19472491
Ag 10.24503962 6.08115364 8.22326585
Ag 8.19649426 4.08012711 12.29163513
Ag 8.24604928 6.12767753 14.40164009
Ag 10.28475515 4.05358727 14.26431635
Ag 10.29601095 6.05235454 12.28707685
Ag 8.21755529 8.20561613 0.01706112
Ag 8.27194145 10.27694910 2.06346565
Ag 10.24890468 8.24555002 2.03064430
Ag 10.25897712 10.29726100 16.34771037
Ag 8.17863131 8.20613303 4.11409025
Ag 8.16134794 10.26368491 6.17058542
Ag 10.26338551 8.17706276 6.19800860
Ag 10.26321922 10.29592768 4.15484125
Ag 8.22438823 8.24742903 8.20868832
Ag 8.20982460 10.20904385 10.31510964
Ag 10.25586996 8.12536376 10.28057462
Ag 10.21819834 10.20614945 8.25542696
Ag 8.18160868 8.18043850 12.24271592
Ag 8.17353905 10.34312725 14.34546000
Ag 10.23314290 8.24544724 14.32665329
Ag 10.21471541 10.33766047 12.32971371
Ag 8.14539866 12.26310059 16.35835693
Ag 8.20470672 14.31682308 2.06181360
Ag 10.25608928 12.38279070 2.11292915
Ag 10.25806403 14.34799384 0.06341572
Ag 8.16815552 12.30597141 4.11759703
Ag 8.25066907 14.29880216 6.10963601
Ag 10.21647638 12.24527082 6.21508721
Ag 10.27310961 14.33968064 4.17705575
Ag 8.25702009 12.29384078 8.24185922
Ag 8.18594099 14.34580200 10.22051683
Ag 10.29130936 12.28112127 10.18488345
Ag 10.29343753 14.36338884 8.22653818
Ag 8.27016880 12.36948458 12.26667056
Ag 8.20108508 14.44526475 14.35453180
Ag 10.22406135 12.36714633 14.36175433
Ag 10.23099413 14.37371827 12.24987937
Ag 12.32308426 16.39031326 0.00909523
Ag 12.23810532 1.99279323 2.04736856
Ag 14.34615377 0.05777067 1.99048179
Ag 14.31535578 2.04042130 16.31928640
Ag 12.26568143 0.03095881 4.06020715
Ag 12.33729100 2.07638621 6.13966302
Ag 14.24422564 0.06373082 6.14390021
Ag 14.29890477 2.06969018 4.10424542
Ag 12.29316164 16.38920924 8.16411426
Ag 12.31665880 2.04453519 10.28109945
Ag 14.31572559 16.35001500 10.20271604
Ag 14.33572629 2.05779548 8.20068805
Ag 12.36196878 16.36116768 12.29310340
Ag 12.30633269 2.01819390 14.32892539
Ag 14.36325129 16.31682911 14.29694413
Ag 14.34177731 2.00962754 12.28728674
Ag 12.30771787 4.04068802 16.33267581
Ag 12.25142505 6.15698407 1.98122223
Ag 14.30371797 4.08499201 2.09913283
Ag 14.33639084 6.15580417 0.00748075
Ag 12.23380606 4.13572452 4.09556584
Ag 12.36272986 6.17071221 6.18049921
Ag 14.32957972 4.11379186 6.16918524
Ag 14.38514920 6.15269282 4.14752794
Ag 12.36812994 4.10252961 8.20919965
Ag 12.29114895 6.17139593 10.22604541
Ag 14.36872853 4.14129697 10.24018088
Ag 14.35357808 6.21710815 8.23196408
Ag 12.37062844 4.04244450 12.27660886
Ag 12.29959111 6.11748694 14.30466482
Ag 14.35588627 4.07810646 14.34057741
Ag 14.32897713 6.14250802 12.26931037
Ag 12.28505446 8.17302586 0.04340728
Ag 12.31017858 10.27900970 2.10624160
Ag 14.35152815 8.16376723 2.04986066
Ag 14.34913788 10.26772997 16.34025477
Ag 12.30779113 8.24285215 4.12474086
Ag 12.31976255 10.28088595 6.19284109
Ag 14.32884892 8.26102760 6.14547416
Ag 14.43814391 10.24214343 4.08117759
Ag 12.33063227 8.24340706 8.25337847
Ag 12.24850883 10.24359101 10.27044579
Ag 14.39359845 8.15797034 10.26370966
Ag 14.38439924 10.29662515 8.17378805
Ag 12.30515254 8.18611891 12.32282672
Ag 12.28690283 10.30080299 14.34874397
Ag 14.38357898 8.23270936 14.28610777
Ag 14.31015510 10.26392520 12.31207133
Ag 12.28973404 12.34307345 0.06852292
Ag 12.26253063 14.41748319 2.07180406
Ag 14.39636402 12.32998037 2.01240286
Ag 14.32108341 14.32362007 0.01617392
Ag 12.31418161 12.26875003 4.09576711
Ag 12.32833386 14.34665538 6.16483284
Ag 14.38168304 12.32597254 6.14795128
Ag 14.30981992 14.41308814 4.08969773
Ag 12.31560012 12.31337840 8.21833671
Ag 12.30493212 14.32666690 10.24528802
Ag 14.30953979 12.25080924 10.25159427
Ag 14.40205994 14.35017220 8.21691641
Ag 12.24868528 12.28095217 12.33021499
Ag 12.32903909 14.30467616 14.31164614
Ag 14.36319602 12.26133140 14.35292157
Ag 14.29142135 14.30291767 12.21619931
