256
Ag FCC Lennard-Jones - final frame
Ag 16.28714705 16.32401447 0.11768657
Ag 16.29866003 2.06194615 2.11972017
Ag 1.95253056 0.00676302 2.09617072
Ag 2.05589057 1.98967625 0.07895422
Ag 16.29843309 0.01875989 4.05329552
Ag 16.25673952 2.03117835 6.03812161
Ag 1.93076727 0.11824023 6.06959085
Ag 2.02267715 2.09353580 4.09124506
Ag 16.32922647 16.34154964 8.13704144
Ag 0.02694275 2.01010611 10.20181067
Ag 2.03254569 0.08745114 10.24350616
Ag 2.08616210 1.97033698 8.12355434
Ag 0.06076661 0.04020823 12.33893218
Ag 16.33305294 1.98507405 14.33819594
Ag 2.06651246 0.06505224 14.38117587
Ag 2.03667573 2.05651519 12.28860903
Ag 16.25083070 4.14468037 0.07342490
Ag 16.27708052 6.16256907 2.07354467
Ag 2.06440997 4.18495762 1.95782465
Ag 2.09105407 6.08284855 16.27382194
Ag 16.30313606 4.23525164 4.06958233
Ag 0.00891429 6.28275745 6.10237237
Ag 2.01237118 3.98840221 6.11956109
Ag 2.05035672 6.13668375 4.16809959
Ag 0.01142356 3.98900827 8.10378963
Ag 0.03699042 6.02052586 10.21159421
Ag 2.00476988 3.99779648 10.14369565
Ag 2.02448683 6.06231092 8.13068437
Ag 0.03207467 4.00543261 12.30500295
Ag 16.33978227 6.20178145 14.38401638
Ag 2.04867080 4.03446407 14.36821714
Ag 1.97291167 6.08405589 12.34649933
Ag 0.10183084 8.18898539 0.03228912
Ag 0.09660759 10.23473563 1.98907110
Ag 2.06672785 8.14546566 2.12107615
Ag 2.12094093 10.18131120 16.26612608
Ag 16.28026063 8.24388649 4.07262801
Ag 16.24183082 10.25462980 6.06305643
Ag 2.06499539 8.20432500 6.13997306
Ag 2.02687596 10.16195579 4.08629927
Ag 0.09631247 8.09633743 8.28513145
Ag 0.13089785 10.20060007 10.21771869
Ag 2.05306648 8.15052388 10.25487251
Ag 2.04798826 10.21300101 8.11066876
Ag 16.30843659 8.16478629 12.26638547
Ag 16.29229392 10.20076480 14.32852402
Ag 2.07223368 8.10041775 14.28930545
Ag 2.10617128 10.20859319 12.28328011
Ag 16.32886154 12.19986644 0.04306672
Ag 16.22227609 14.22262127 2.11598609
Ag 2.17774870 12.26065824 1.98097747
Ag 1.91455144 14.26564466 0.03992225
Ag 0.01031020 12.29012974 4.02838710
Ag 16.33504709 14.33773026 6.09714985
Ag 1.98762076 12.23743129 6.01824177
Ag 2.05092227 14.37897211 4.05591549
Ag 16.28272985 12.29292570 8.14845649
Ag 0.06993647 14.39021539 10.24038675
Ag 2.06782381 12.33059802 10.14058898
Ag 2.05807750 14.33622079 8.07444783
Ag 0.08015077 12.31214076 12.25034703
Ag 0.06680412 14.32386400 14.35179381
Ag 2.05468832 12.19059501 14.28788913
Ag 2.09800675 14.41270642 12.24371535
Ag 4.07683695 16.32655662 0.08317118
Ag 4.11026736 2.04388681 2.06948751
Ag 6.18100760 16.29536660 2.02916403
Ag 6.12555872 2.07588191 0.06451423
Ag 4.09608784 0.01277111 4.04084425
Ag 4.08802018 2.03678321 6.02949274
Ag 6.04955855 16.34244283 6.10729879
Ag 6.11805852 1.98353084 4.00140179
Ag 4.01771223 0.00889141 8.17352883
Ag 4.10575890 2.01070200 10.22854117
Ag 6.15124046 16.31394840 10.26712426
Ag 6.05424031 2.02348334 8.14544964
Ag 4.06878473 16.33794285 12.23662962
Ag 4.06174201 2.13771509 14.28263735
Ag 6.00645236 16.33195409 14.25553270
Ag 6.02785089 2.14989257 12.18923742
Ag 4.19743266 4.13599988 16.34086818
Ag 4.07674072 6.13527529 2.05727154
Ag 6.14270692 4.14142115 2.03482360
Ag 6.22492284 6.13399957 16.31795624
Ag 4.12056753 4.04877638 4.04625589
Ag 4.03224884 6.10456484 6.18572456
Ag 6.14435334 4.08767201 6.06529620
Ag 6.13726276 6.18411824 4.05039012
Ag 3.99908383 4.01237085 8.13734673
Ag 3.99526445 6.01551568 10.09631814
Ag 6.05861547 4.12877785 10.22510454
Ag 6.10742803 6.14172789 8.23583480
Ag 4.00797121 4.14527108 12.18317655
Ag 4.07132019 6.15696561 14.31337870
Ag 6.13840403 4.20215858 14.28881100
Ag 6.12105173 6.01892903 12.19857488
Ag 4.10194045 8.18368287 16.33056401
Ag 4.16632457 10.22064920 2.09494614
Ag 6.18963496 8.17189394 2.02771913
Ag 6.17829111 10.23346206 0.03904926
Ag 4.20828590 8.16925003 4.07882400
Ag 4.15277085 10.26766162 6.07575887
Ag 6.20485536 8.21756647 6.04559389
Ag 6.24282080 10.22585155 4.11638485
Ag 4.10287832 8.22583767 8.07803198
Ag 4.06158314 10.18099107 10.22042750
Ag 6.05417834 8.15648972 10.27308442
Ag 6.13701926 10.12741741 8.16757778
Ag 4.12858334 8.04286355 12.23689446
Ag 4.12440708 10.16182140 14.26661843
Ag 6.13496295 8.15541242 14.24867547
Ag 6.10880514 10.27248084 12.09813770
Ag 4.10399439 12.21648253 16.26908647
Ag 4.16919395 14.27135084 2.03325375
Ag 6.15831989 12.25022653 2.01845278
Ag 6.11767297 14.30707093 16.32851389
Ag 4.13250894 12.21989858 4.04106886
Ag 4.06483318 14.25261771 6.08912780
Ag 6.22316155 12.17180718 6.10616384
Ag 6.16832609 14.27602243 4.08545971
Ag 4.04708903 12.18257986 8.04934253
Ag 4.08153299 14.34995650 10.13450635
Ag 6.04564713 12.35181273 10.14316388
Ag 6.00007807 14.24510196 8.18167062
Ag 4.03189186 12.39900965 12.20796538
Ag 3.97129873 14.30775165 14.31381023
Ag 6.04565411 12.28263439 14.28447229
Ag 5.97248439 14.31397434 12.23893790
Ag 8.11486634 0.04882212 16.27508512
Ag 8.15515654 2.04715437 2.03404642
Ag 10.17452269 0.08538617 1.96946984
Ag 10.24289649 2.00490536 16.24933172
Ag 8.29202426 0.02622289 4.21227319
Ag 8.17181025 2.10120615 6.14952112
Ag 10.39544249 16.34315274 6.20912782
Ag 10.17938018 2.13403061 4.12382249
Ag 8.04517652 16.31200766 8.14258954
Ag 8.03465134 2.01089924 10.26089458
Ag 10.18948516 16.32844984 10.25964774
Ag 10.17922694 1.92376685 8.19430875
Ag 8.14382446 16.26377334 12.30077183
Ag 8.06969674 2.05745941 14.30344933
Ag 10.21822617 0.04687984 14.27564735
Ag 10.22664488 2.00095403 12.29134047
Ag 8.16413573 4.10740841 0.06333227
Ag 8.30987891 6.18955996 2.04486172
Ag 10.21702129 4.03885274 1.99114780
Ag 10.19448213 6.17246363 16.29007520
Ag 8.19136913 4.19930970 4.03694669
Ag 8.13674261 6.16563294 6.25820367
Ag 10.21297504 4.13336496 6.23787960
Ag 10.27243772 6.14070251 4.25427354
Ag 8.20610684 4.03735157 8.21314105
Ag 8.20018276 6.03421687 10.18393358
Ag 10.22226306 3.93357637 10.17589674
Ag 10.24396429 6.13854950 8.22426612
Ag 8.18421419 4.02918110 12.15586946
Ag 8.18927089 6.04851379 14.14628019
Ag 10.20330510 3.97610676 14.37404198
Ag 10.18038256 6.05372985 12.17960081
Ag 8.24932280 8.22644705 16.28588958
Ag 8.13591537 10.21522457 2.06853941
Ag 10.23448958 8.22039933 2.10536279
Ag 10.20561175 10.18714328 0.01753358
Ag 8.29233920 8.15117424 4.12151319
Ag 8.23690653 10.14557598 6.13935373
Ag 10.22926138 8.20915756 6.17915606
Ag 10.21829818 10.24775539 4.14523552
Ag 8.18979628 8.05340419 8.30618363
Ag 8.07760238 10.24789388 10.21912756
Ag 10.21203671 8.14418135 10.33431019
Ag 10.22115687 10.20754221 8.24544696
Ag 8.11451355 8.12471208 12.23603998
Ag 8.10189795 10.22894433 14.24393799
Ag 10.12169630 8.14422882 14.20008509
Ag 10.15667232 10.17210077 12.28071571
Ag 8.26298757 12.27246810 0.08774564
Ag 8.26422833 14.30610156 2.08152720
Ag 10.20953281 12.12095252 2.08776762
Ag 10.17746205 14.31562213 16.24549524
Ag 8.22453597 12.25326869 4.12237653
Ag 8.08305620 14.30854281 6.19911368
Ag 10.21928594 12.32502973 6.17739057
Ag 10.19044601 14.32088246 4.14762831
Ag 8.08730290 12.26049908 8.21144631
Ag 8.20073866 14.36204074 10.21462889
Ag 10.19685794 12.33438434 10.26692761
Ag 10.19465642 14.32895659 8.16288200
Ag 8.14810835 12.27181304 12.25441996
Ag 8.20080229 14.22119102 14.25862826
Ag 10.28611437 12.20106092 14.27021036
Ag 10.31358669 14.34781081 12.26910044
Ag 12.25597471 0.02730031 16.27354178
Ag 12.32510345 2.08841637 1.97172221
Ag 14.24578095 16.34352567 2.07623254
Ag 14.41294354 2.03630114 16.33719915
Ag 12.19867051 16.34180862 4.10143918
Ag 12.26211048 2.01211838 6.13082846
Ag 14.36995187 16.26073367 6.08151123
Ag 14.22267587 2.05710190 4.03951087
Ag 12.37859118 0.00510287 8.23271714
Ag 12.30565021 2.00659410 10.17329936
Ag 14.36193194 0.05064788 10.34517020
Ag 14.33109115 2.03045808 8.11834281
Ag 12.22301839 0.01272509 12.26695393
Ag 12.34163525 2.07406545 14.27028038
Ag 14.36120513 16.31713978 14.33752254
Ag 14.38985327 2.07018134 12.30783332
Ag 12.27218448 4.11112523 16.31288656
Ag 12.21974050 6.18084137 2.08931645
Ag 14.20205509 4.21995423 2.02194185
Ag 14.23037653 6.12457119 0.01813623
Ag 12.26779897 4.08261495 4.14431864
Ag 12.19166755 6.14071664 6.16739809
Ag 14.29647805 4.15778257 6.07215822
Ag 14.19388530 6.27111901 4.01531200
Ag 12.29688329 4.01534429 8.12186762
Ag 12.32546648 6.01206269 10.24939436
Ag 14.33572540 3.98023420 10.22338807
Ag 14.32862266 6.08319853 8.17954686
Ag 12.26511801 4.09421305 12.26281086
Ag 12.22443261 6.17945645 14.33062041
Ag 14.35868869 4.17919661 14.27738871
Ag 14.36487790 6.10092947 12.26433726
Ag 12.17289151 8.21665213 16.19358327
Ag 12.24715843 10.15222437 2.05103146
Ag 14.27863163 8.19869794 1.98845736
Ag 14.30440362 10.22291696 0.09262978
Ag 12.23602723 8.18573806 4.17769611
Ag 12.24302984 10.24014646 6.11011937
Ag 14.28626331 8.19690190 6.14713070
Ag 14.21312630 10.24853434 4.11343267
Ag 12.17864873 8.13986072 8.21089105
Ag 12.24507049 10.13277880 10.25161454
Ag 14.30638378 8.23723274 10.23830087
Ag 14.29433681 10.16700385 8.25365635
Ag 12.33162886 8.19407259 12.30546697
Ag 12.34938568 10.26636338 14.31383392
Ag 14.28451215 8.16486502 14.41559084
Ag 14.36241302 10.24219855 12.22069415
Ag 12.21254366 12.18959740 0.03865067
Ag 12.15818258 14.31371624 1.99500678
Ag 14.24225880 12.23120415 2.09124192
Ag 14.25825432 14.26966005 0.06513832
Ag 12.29048199 12.33428728 4.12653674
Ag 12.31512676 14.28057997 6.21491566
Ag 14.33487426 12.27424190 6.08368719
Ag 14.23648893 14.28493066 4.01664440
Ag 12.29692467 12.20883804 8.20815563
Ag 12.28392601 14.30335309 10.12014575
Ag 14.36485331 12.24594062 10.12688549
Ag 14.31554125 14.26599739 8.23455077
Ag 12.31447129 12.28341826 12.17844574
Ag 12.22622743 14.25812959 14.35852201
Ag 14.31521305 12.32360046 14.34465537
Ag 14.36350674 14.28193601 12.27027045
