108
Ag structure imported from fcc100a108.txt
Ag 2.08020000 2.08020000 0.00000000
Ag 0.00000000 0.00000000 0.00000000
Ag 0.00000000 4.16040000 0.00000000
Ag 2.08020000 6.24060000 0.00000000
Ag 0.00000000 8.32080000 0.00000000
Ag 2.08020000 10.40100000 0.00000000
Ag 4.16040000 0.00000000 0.00000000
Ag 6.24060000 2.08020000 0.00000000
Ag 4.16040000 4.16040000 0.00000000
Ag 6.24060000 6.24060000 0.00000000
Ag 4.16040000 8.32080000 0.00000000
Ag 6.24060000 10.40100000 0.00000000
Ag 8.32080000 0.00000000 0.00000000
Ag 10.40100000 2.08020000 0.00000000
Ag 8.32080000 4.16040000 0.00000000
Ag 10.40100000 6.24060000 0.00000000
Ag 8.32080000 8.32080000 0.00000000
Ag 10.40100000 10.40100000 0.00000000
Ag 6.24060000 4.16040000 2.08020000
Ag 4.16040000 6.24060000 2.08020000
Ag 2.08020000 8.32080000 2.08020000
Ag 0.00000000 10.40100000 2.08020000
Ag 6.24060000 8.32080000 2.08020000
Ag 4.16040000 10.40100000 2.08020000
Ag 2.08020000 4.16040000 2.08020000
Ag 0.00000000 6.24060000 2.08020000
Ag 10.40100000 0.00000000 2.08020000
Ag 8.32080000 2.08020000 2.08020000
Ag 6.24060000 0.00000000 2.08020000
Ag 4.16040000 2.08020000 2.08020000
Ag 10.40100000 4.16040000 2.08020000
Ag 8.32080000 6.24060000 2.08020000
Ag 0.00000000 2.08020000 2.08020000
Ag 2.08020000 0.00000000 2.08020000
Ag 10.40100000 8.32080000 2.08020000
Ag 8.32080000 10.40100000 2.08020000
Ag 0.00000000 8.32080000 4.16040000
Ag 2.08020000 10.40100000 4.16040000
Ag 2.08020000 2.08020000 4.16040000
Ag 0.00000000 0.00000000 4.16040000
Ag 8.32080000 0.00000000 4.16040000
Ag 10.40100000 2.08020000 4.16040000
Ag 4.16040000 4.16040000 4.16040000
Ag 6.24060000 6.24060000 4.16040000
Ag 0.00000000 4.16040000 4.16040000
Ag 2.08020000 6.24060000 4.16040000
Ag 8.32080000 4.16040000 4.16040000
Ag 10.40100000 6.24060000 4.16040000
Ag 4.16040000 0.00000000 4.16040000
Ag 6.24060000 2.08020000 4.16040000
Ag 4.16040000 8.32080000 4.16040000
Ag 6.24060000 10.40100000 4.16040000
Ag 8.32080000 8.32080000 4.16040000
Ag 10.40100000 10.40100000 4.16040000
Ag 10.40100000 0.00000000 6.24060000
Ag 8.32080000 2.08020000 6.24060000
Ag 2.08020000 4.16040000 6.24060000
Ag 0.00000000 6.24060000 6.24060000
Ag 0.00000000 2.08020000 6.24060000
Ag 2.08020000 0.00000000 6.24060000
Ag 6.24060000 8.32080000 6.24060000
Ag 4.16040000 10.40100000 6.24060000
Ag 10.40100000 4.16040000 6.24060000
Ag 8.32080000 6.24060000 6.24060000
Ag 2.08020000 8.32080000 6.24060000
Ag 0.00000000 10.40100000 6.24060000
Ag 6.24060000 4.16040000 6.24060000
Ag 4.16040000 6.24060000 6.24060000
Ag 6.24060000 0.00000000 6.24060000
Ag 4.16040000 2.08020000 6.24060000
Ag 10.40100000 8.32080000 6.24060000
Ag 8.32080000 10.40100000 6.24060000
Ag 4.16040000 8.32080000 8.32080000
Ag 6.24060000 10.40100000 8.32080000
Ag 4.16040000 4.16040000 8.32080000
Ag 6.24060000 6.24060000 8.32080000
Ag 0.00000000 4.16040000 8.32080000
Ag 2.08020000 6.24060000 8.32080000
Ag 8.32080000 4.16040000 8.32080000
Ag 10.40100000 6.24060000 8.32080000
Ag 0.00000000 8.32080000 8.32080000
Ag 2.08020000 10.40100000 8.32080000
Ag 2.08020000 2.08020000 8.32080000
Ag 0.00000000 0.00000000 8.32080000
Ag 8.32080000 0.00000000 8.32080000
Ag 10.40100000 2.08020000 8.32080000
Ag 4.16040000 0.00000000 8.32080000
Ag 6.24060000 2.08020000 8.32080000
Ag 8.32080000 8.32080000 8.32080000
Ag 10.40100000 10.40100000 8.32080000
Ag 6.24060000 0.00000000 10.40100000
Ag 4.16040000 2.08020000 10.40100000
Ag 2.08020000 8.32080000 10.40100000
Ag 0.00000000 10.40100000 10.40100000
Ag 10.40100000 4.16040000 10.40100000
Ag 8.32080000 6.24060000 10.40100000
Ag 6.24060000 4.16040000 10.40100000
Ag 4.16040000 6.24060000 10.40100000
Ag 10.40100000 0.00000000 10.40100000
Ag 8.32080000 2.08020000 10.40100000
Ag 6.24060000 8.32080000 10.40100000
Ag 4.16040000 10.40100000 10.40100000
Ag 2.08020000 4.16040000 10.40100000
Ag 0.00000000 6.24060000 10.40100000
Ag 2.08020000 0.00000000 10.40100000
Ag 0.00000000 2.08020000 10.40100000
Ag 10.40100000 8.32080000 10.40100000
Ag 8.32080000 10.40100000 10.40100000
