864
Ag structure imported from fcc100a864.txt
Ag 2.08020000 2.08020000 0.00000000
Ag 0.00000000 0.00000000 0.00000000
Ag 0.00000000 4.16040000 0.00000000
Ag 2.08020000 6.24060000 0.00000000
Ag 0.00000000 8.32080000 0.00000000
Ag 2.08020000 10.40100000 0.00000000
Ag 0.00000000 12.48120000 0.00000000
Ag 2.08020000 14.56140000 0.00000000
Ag 0.00000000 16.64160000 0.00000000
Ag 2.08020000 18.72180000 0.00000000
Ag 0.00000000 20.80200000 0.00000000
Ag 2.08020000 22.88220000 0.00000000
Ag 4.16040000 0.00000000 0.00000000
Ag 6.24060000 2.08020000 0.00000000
Ag 4.16040000 4.16040000 0.00000000
Ag 6.24060000 6.24060000 0.00000000
Ag 4.16040000 8.32080000 0.00000000
Ag 6.24060000 10.40100000 0.00000000
Ag 4.16040000 12.48120000 0.00000000
Ag 6.24060000 14.56140000 0.00000000
Ag 4.16040000 16.64160000 0.00000000
Ag 6.24060000 18.72180000 0.00000000
Ag 4.16040000 20.80200000 0.00000000
Ag 6.24060000 22.88220000 0.00000000
Ag 8.32080000 0.00000000 0.00000000
Ag 10.40100000 2.08020000 0.00000000
Ag 8.32080000 4.16040000 0.00000000
Ag 10.40100000 6.24060000 0.00000000
Ag 8.32080000 8.32080000 0.00000000
Ag 10.40100000 10.40100000 0.00000000
Ag 8.32080000 12.48120000 0.00000000
Ag 10.40100000 14.56140000 0.00000000
Ag 8.32080000 16.64160000 0.00000000
Ag 10.40100000 18.72180000 0.00000000
Ag 8.32080000 20.80200000 0.00000000
Ag 10.40100000 22.88220000 0.00000000
Ag 12.48120000 0.00000000 0.00000000
Ag 14.56140000 2.08020000 0.00000000
Ag 12.48120000 4.16040000 0.00000000
Ag 14.56140000 6.24060000 0.00000000
Ag 12.48120000 8.32080000 0.00000000
Ag 14.56140000 10.40100000 0.00000000
Ag 12.48120000 12.48120000 0.00000000
Ag 14.56140000 14.56140000 0.00000000
Ag 12.48120000 16.64160000 0.00000000
Ag 14.56140000 18.72180000 0.00000000
Ag 12.48120000 20.80200000 0.00000000
Ag 14.56140000 22.88220000 0.00000000
Ag 16.64160000 0.00000000 0.00000000
Ag 18.72180000 2.08020000 0.00000000
Ag 16.64160000 4.16040000 0.00000000
Ag 18.72180000 6.24060000 0.00000000
Ag 16.64160000 8.32080000 0.00000000
Ag 18.72180000 10.40100000 0.00000000
Ag 16.64160000 12.48120000 0.00000000
Ag 18.72180000 14.56140000 0.00000000
Ag 16.64160000 16.64160000 0.00000000
Ag 18.72180000 18.72180000 0.00000000
Ag 16.64160000 20.80200000 0.00000000
Ag 18.72180000 22.88220000 0.00000000
Ag 20.80200000 0.00000000 0.00000000
Ag 22.88220000 2.08020000 0.00000000
Ag 20.80200000 4.16040000 0.00000000
Ag 22.88220000 6.24060000 0.00000000
Ag 20.80200000 8.32080000 0.00000000
Ag 22.88220000 10.40100000 0.00000000
Ag 20.80200000 12.48120000 0.00000000
Ag 22.88220000 14.56140000 0.00000000
Ag 20.80200000 16.64160000 0.00000000
Ag 22.88220000 18.72180000 0.00000000
Ag 20.80200000 20.80200000 0.00000000
Ag 22.88220000 22.88220000 0.00000000
Ag 2.08020000 16.64160000 2.08020000
Ag 0.00000000 18.72180000 2.08020000
Ag 14.56140000 0.00000000 2.08020000
Ag 12.48120000 2.08020000 2.08020000
Ag 6.24060000 12.48120000 2.08020000
Ag 4.16040000 14.56140000 2.08020000
Ag 14.56140000 4.16040000 2.08020000
Ag 12.48120000 6.24060000 2.08020000
Ag 2.08020000 8.32080000 2.08020000
Ag 0.00000000 10.40100000 2.08020000
Ag 14.56140000 8.32080000 2.08020000
Ag 12.48120000 10.40100000 2.08020000
Ag 6.24060000 16.64160000 2.08020000
Ag 4.16040000 18.72180000 2.08020000
Ag 14.56140000 12.48120000 2.08020000
Ag 12.48120000 14.56140000 2.08020000
Ag 2.08020000 20.80200000 2.08020000
Ag 0.00000000 22.88220000 2.08020000
Ag 14.56140000 16.64160000 2.08020000
Ag 12.48120000 18.72180000 2.08020000
Ag 6.24060000 20.80200000 2.08020000
Ag 4.16040000 22.88220000 2.08020000
Ag 14.56140000 20.80200000 2.08020000
Ag 12.48120000 22.88220000 2.08020000
Ag 2.08020000 4.16040000 2.08020000
Ag 0.00000000 6.24060000 2.08020000
Ag 18.72180000 0.00000000 2.08020000
Ag 16.64160000 2.08020000 2.08020000
Ag 10.40100000 0.00000000 2.08020000
Ag 8.32080000 2.08020000 2.08020000
Ag 18.72180000 4.16040000 2.08020000
Ag 16.64160000 6.24060000 2.08020000
Ag 6.24060000 0.00000000 2.08020000
Ag 4.16040000 2.08020000 2.08020000
Ag 18.72180000 8.32080000 2.08020000
Ag 16.64160000 10.40100000 2.08020000
Ag 10.40100000 4.16040000 2.08020000
Ag 8.32080000 6.24060000 2.08020000
Ag 18.72180000 12.48120000 2.08020000
Ag 16.64160000 14.56140000 2.08020000
Ag 2.08020000 12.48120000 2.08020000
Ag 0.00000000 14.56140000 2.08020000
Ag 18.72180000 16.64160000 2.08020000
Ag 16.64160000 18.72180000 2.08020000
Ag 10.40100000 8.32080000 2.08020000
Ag 8.32080000 10.40100000 2.08020000
Ag 18.72180000 20.80200000 2.08020000
Ag 16.64160000 22.88220000 2.08020000
Ag 6.24060000 4.16040000 2.08020000
Ag 4.16040000 6.24060000 2.08020000
Ag 22.88220000 0.00000000 2.08020000
Ag 20.80200000 2.08020000 2.08020000
Ag 10.40100000 12.48120000 2.08020000
Ag 8.32080000 14.56140000 2.08020000
Ag 22.88220000 4.16040000 2.08020000
Ag 20.80200000 6.24060000 2.08020000
Ag 0.00000000 2.08020000 2.08020000
Ag 2.08020000 0.00000000 2.08020000
Ag 22.88220000 8.32080000 2.08020000
Ag 20.80200000 10.40100000 2.08020000
Ag 10.40100000 16.64160000 2.08020000
Ag 8.32080000 18.72180000 2.08020000
Ag 22.88220000 12.48120000 2.08020000
Ag 20.80200000 14.56140000 2.08020000
Ag 6.24060000 8.32080000 2.08020000
Ag 4.16040000 10.40100000 2.08020000
Ag 22.88220000 16.64160000 2.08020000
Ag 20.80200000 18.72180000 2.08020000
Ag 10.40100000 20.80200000 2.08020000
Ag 8.32080000 22.88220000 2.08020000
Ag 22.88220000 20.80200000 2.08020000
Ag 20.80200000 22.88220000 2.08020000
Ag 4.16040000 16.64160000 4.16040000
Ag 6.24060000 18.72180000 4.16040000
Ag 0.00000000 4.16040000 4.16040000
Ag 2.08020000 6.24060000 4.16040000
Ag 16.64160000 0.00000000 4.16040000
Ag 18.72180000 2.08020000 4.16040000
Ag 8.32080000 16.64160000 4.16040000
Ag 10.40100000 18.72180000 4.16040000
Ag 4.16040000 4.16040000 4.16040000
Ag 6.24060000 6.24060000 4.16040000
Ag 16.64160000 4.16040000 4.16040000
Ag 18.72180000 6.24060000 4.16040000
Ag 4.16040000 20.80200000 4.16040000
Ag 6.24060000 22.88220000 4.16040000
Ag 8.32080000 20.80200000 4.16040000
Ag 10.40100000 22.88220000 4.16040000
Ag 16.64160000 8.32080000 4.16040000
Ag 18.72180000 10.40100000 4.16040000
Ag 0.00000000 12.48120000 4.16040000
Ag 2.08020000 14.56140000 4.16040000
Ag 0.00000000 20.80200000 4.16040000
Ag 2.08020000 22.88220000 4.16040000
Ag 16.64160000 12.48120000 4.16040000
Ag 18.72180000 14.56140000 4.16040000
Ag 12.48120000 0.00000000 4.16040000
Ag 14.56140000 2.08020000 4.16040000
Ag 8.32080000 0.00000000 4.16040000
Ag 10.40100000 2.08020000 4.16040000
Ag 16.64160000 16.64160000 4.16040000
Ag 18.72180000 18.72180000 4.16040000
Ag 4.16040000 8.32080000 4.16040000
Ag 6.24060000 10.40100000 4.16040000
Ag 12.48120000 4.16040000 4.16040000
Ag 14.56140000 6.24060000 4.16040000
Ag 16.64160000 20.80200000 4.16040000
Ag 18.72180000 22.88220000 4.16040000
Ag 0.00000000 8.32080000 4.16040000
Ag 2.08020000 10.40100000 4.16040000
Ag 8.32080000 4.16040000 4.16040000
Ag 10.40100000 6.24060000 4.16040000
Ag 20.80200000 0.00000000 4.16040000
Ag 22.88220000 2.08020000 4.16040000
Ag 12.48120000 8.32080000 4.16040000
Ag 14.56140000 10.40100000 4.16040000
Ag 2.08020000 2.08020000 4.16040000
Ag 0.00000000 0.00000000 4.16040000
Ag 20.80200000 4.16040000 4.16040000
Ag 22.88220000 6.24060000 4.16040000
Ag 4.16040000 12.48120000 4.16040000
Ag 6.24060000 14.56140000 4.16040000
Ag 12.48120000 12.48120000 4.16040000
Ag 14.56140000 14.56140000 4.16040000
Ag 20.80200000 8.32080000 4.16040000
Ag 22.88220000 10.40100000 4.16040000
Ag 8.32080000 8.32080000 4.16040000
Ag 10.40100000 10.40100000 4.16040000
Ag 4.16040000 0.00000000 4.16040000
Ag 6.24060000 2.08020000 4.16040000
Ag 20.80200000 12.48120000 4.16040000
Ag 22.88220000 14.56140000 4.16040000
Ag 12.48120000 16.64160000 4.16040000
Ag 14.56140000 18.72180000 4.16040000
Ag 0.00000000 16.64160000 4.16040000
Ag 2.08020000 18.72180000 4.16040000
Ag 20.80200000 16.64160000 4.16040000
Ag 22.88220000 18.72180000 4.16040000
Ag 8.32080000 12.48120000 4.16040000
Ag 10.40100000 14.56140000 4.16040000
Ag 12.48120000 20.80200000 4.16040000
Ag 14.56140000 22.88220000 4.16040000
Ag 20.80200000 20.80200000 4.16040000
Ag 22.88220000 22.88220000 4.16040000
Ag 6.24060000 8.32080000 6.24060000
Ag 4.16040000 10.40100000 6.24060000
Ag 6.24060000 20.80200000 6.24060000
Ag 4.16040000 22.88220000 6.24060000
Ag 14.56140000 8.32080000 6.24060000
Ag 12.48120000 10.40100000 6.24060000
Ag 18.72180000 12.48120000 6.24060000
Ag 16.64160000 14.56140000 6.24060000
Ag 10.40100000 12.48120000 6.24060000
Ag 8.32080000 14.56140000 6.24060000
Ag 6.24060000 0.00000000 6.24060000
Ag 4.16040000 2.08020000 6.24060000
Ag 2.08020000 4.16040000 6.24060000
Ag 0.00000000 6.24060000 6.24060000
Ag 18.72180000 16.64160000 6.24060000
Ag 16.64160000 18.72180000 6.24060000
Ag 14.56140000 12.48120000 6.24060000
Ag 12.48120000 14.56140000 6.24060000
Ag 0.00000000 2.08020000 6.24060000
Ag 2.08020000 0.00000000 6.24060000
Ag 10.40100000 16.64160000 6.24060000
Ag 8.32080000 18.72180000 6.24060000
Ag 18.72180000 20.80200000 6.24060000
Ag 16.64160000 22.88220000 6.24060000
Ag 10.40100000 0.00000000 6.24060000
Ag 8.32080000 2.08020000 6.24060000
Ag 14.56140000 16.64160000 6.24060000
Ag 12.48120000 18.72180000 6.24060000
Ag 6.24060000 12.48120000 6.24060000
Ag 4.16040000 14.56140000 6.24060000
Ag 22.88220000 0.00000000 6.24060000
Ag 20.80200000 2.08020000 6.24060000
Ag 2.08020000 20.80200000 6.24060000
Ag 0.00000000 22.88220000 6.24060000
Ag 10.40100000 20.80200000 6.24060000
Ag 8.32080000 22.88220000 6.24060000
Ag 14.56140000 20.80200000 6.24060000
Ag 12.48120000 22.88220000 6.24060000
Ag 22.88220000 4.16040000 6.24060000
Ag 20.80200000 6.24060000 6.24060000
Ag 6.24060000 4.16040000 6.24060000
Ag 4.16040000 6.24060000 6.24060000
Ag 10.40100000 4.16040000 6.24060000
Ag 8.32080000 6.24060000 6.24060000
Ag 2.08020000 8.32080000 6.24060000
Ag 0.00000000 10.40100000 6.24060000
Ag 22.88220000 8.32080000 6.24060000
Ag 20.80200000 10.40100000 6.24060000
Ag 18.72180000 0.00000000 6.24060000
Ag 16.64160000 2.08020000 6.24060000
Ag 14.56140000 0.00000000 6.24060000
Ag 12.48120000 2.08020000 6.24060000
Ag 6.24060000 16.64160000 6.24060000
Ag 4.16040000 18.72180000 6.24060000
Ag 22.88220000 12.48120000 6.24060000
Ag 20.80200000 14.56140000 6.24060000
Ag 2.08020000 16.64160000 6.24060000
Ag 0.00000000 18.72180000 6.24060000
Ag 18.72180000 4.16040000 6.24060000
Ag 16.64160000 6.24060000 6.24060000
Ag 10.40100000 8.32080000 6.24060000
Ag 8.32080000 10.40100000 6.24060000
Ag 22.88220000 16.64160000 6.24060000
Ag 20.80200000 18.72180000 6.24060000
Ag 14.56140000 4.16040000 6.24060000
Ag 12.48120000 6.24060000 6.24060000
Ag 2.08020000 12.48120000 6.24060000
Ag 0.00000000 14.56140000 6.24060000
Ag 18.72180000 8.32080000 6.24060000
Ag 16.64160000 10.40100000 6.24060000
Ag 22.88220000 20.80200000 6.24060000
Ag 20.80200000 22.88220000 6.24060000
Ag 16.64160000 16.64160000 8.32080000
Ag 18.72180000 18.72180000 8.32080000
Ag 4.16040000 4.16040000 8.32080000
Ag 6.24060000 6.24060000 8.32080000
Ag 12.48120000 0.00000000 8.32080000
Ag 14.56140000 2.08020000 8.32080000
Ag 4.16040000 12.48120000 8.32080000
Ag 6.24060000 14.56140000 8.32080000
Ag 12.48120000 20.80200000 8.32080000
Ag 14.56140000 22.88220000 8.32080000
Ag 16.64160000 20.80200000 8.32080000
Ag 18.72180000 22.88220000 8.32080000
Ag 0.00000000 8.32080000 8.32080000
Ag 2.08020000 10.40100000 8.32080000
Ag 2.08020000 2.08020000 8.32080000
Ag 0.00000000 0.00000000 8.32080000
Ag 8.32080000 12.48120000 8.32080000
Ag 10.40100000 14.56140000 8.32080000
Ag 12.48120000 4.16040000 8.32080000
Ag 14.56140000 6.24060000 8.32080000
Ag 20.80200000 0.00000000 8.32080000
Ag 22.88220000 2.08020000 8.32080000
Ag 16.64160000 0.00000000 8.32080000
Ag 18.72180000 2.08020000 8.32080000
Ag 8.32080000 0.00000000 8.32080000
Ag 10.40100000 2.08020000 8.32080000
Ag 4.16040000 0.00000000 8.32080000
Ag 6.24060000 2.08020000 8.32080000
Ag 0.00000000 12.48120000 8.32080000
Ag 2.08020000 14.56140000 8.32080000
Ag 20.80200000 4.16040000 8.32080000
Ag 22.88220000 6.24060000 8.32080000
Ag 4.16040000 16.64160000 8.32080000
Ag 6.24060000 18.72180000 8.32080000
Ag 16.64160000 4.16040000 8.32080000
Ag 18.72180000 6.24060000 8.32080000
Ag 12.48120000 8.32080000 8.32080000
Ag 14.56140000 10.40100000 8.32080000
Ag 8.32080000 16.64160000 8.32080000
Ag 10.40100000 18.72180000 8.32080000
Ag 20.80200000 8.32080000 8.32080000
Ag 22.88220000 10.40100000 8.32080000
Ag 4.16040000 8.32080000 8.32080000
Ag 6.24060000 10.40100000 8.32080000
Ag 8.32080000 4.16040000 8.32080000
Ag 10.40100000 6.24060000 8.32080000
Ag 16.64160000 8.32080000 8.32080000
Ag 18.72180000 10.40100000 8.32080000
Ag 0.00000000 20.80200000 8.32080000
Ag 2.08020000 22.88220000 8.32080000
Ag 20.80200000 12.48120000 8.32080000
Ag 22.88220000 14.56140000 8.32080000
Ag 12.48120000 12.48120000 8.32080000
Ag 14.56140000 14.56140000 8.32080000
Ag 0.00000000 16.64160000 8.32080000
Ag 2.08020000 18.72180000 8.32080000
Ag 8.32080000 20.80200000 8.32080000
Ag 10.40100000 22.88220000 8.32080000
Ag 16.64160000 12.48120000 8.32080000
Ag 18.72180000 14.56140000 8.32080000
Ag 20.80200000 16.64160000 8.32080000
Ag 22.88220000 18.72180000 8.32080000
Ag 0.00000000 4.16040000 8.32080000
Ag 2.08020000 6.24060000 8.32080000
Ag 4.16040000 20.80200000 8.32080000
Ag 6.24060000 22.88220000 8.32080000
Ag 12.48120000 16.64160000 8.32080000
Ag 14.56140000 18.72180000 8.32080000
Ag 8.32080000 8.32080000 8.32080000
Ag 10.40100000 10.40100000 8.32080000
Ag 20.80200000 20.80200000 8.32080000
Ag 22.88220000 22.88220000 8.32080000
Ag 14.56140000 8.32080000 10.40100000
Ag 12.48120000 10.40100000 10.40100000
Ag 0.00000000 2.08020000 10.40100000
Ag 2.08020000 0.00000000 10.40100000
Ag 10.40100000 8.32080000 10.40100000
Ag 8.32080000 10.40100000 10.40100000
Ag 10.40100000 20.80200000 10.40100000
Ag 8.32080000 22.88220000 10.40100000
Ag 6.24060000 8.32080000 10.40100000
Ag 4.16040000 10.40100000 10.40100000
Ag 22.88220000 0.00000000 10.40100000
Ag 20.80200000 2.08020000 10.40100000
Ag 18.72180000 4.16040000 10.40100000
Ag 16.64160000 6.24060000 10.40100000
Ag 2.08020000 12.48120000 10.40100000
Ag 0.00000000 14.56140000 10.40100000
Ag 14.56140000 12.48120000 10.40100000
Ag 12.48120000 14.56140000 10.40100000
Ag 10.40100000 0.00000000 10.40100000
Ag 8.32080000 2.08020000 10.40100000
Ag 6.24060000 16.64160000 10.40100000
Ag 4.16040000 18.72180000 10.40100000
Ag 22.88220000 4.16040000 10.40100000
Ag 20.80200000 6.24060000 10.40100000
Ag 2.08020000 8.32080000 10.40100000
Ag 0.00000000 10.40100000 10.40100000
Ag 18.72180000 8.32080000 10.40100000
Ag 16.64160000 10.40100000 10.40100000
Ag 14.56140000 0.00000000 10.40100000
Ag 12.48120000 2.08020000 10.40100000
Ag 10.40100000 12.48120000 10.40100000
Ag 8.32080000 14.56140000 10.40100000
Ag 14.56140000 16.64160000 10.40100000
Ag 12.48120000 18.72180000 10.40100000
Ag 22.88220000 8.32080000 10.40100000
Ag 20.80200000 10.40100000 10.40100000
Ag 6.24060000 4.16040000 10.40100000
Ag 4.16040000 6.24060000 10.40100000
Ag 2.08020000 16.64160000 10.40100000
Ag 0.00000000 18.72180000 10.40100000
Ag 18.72180000 12.48120000 10.40100000
Ag 16.64160000 14.56140000 10.40100000
Ag 6.24060000 0.00000000 10.40100000
Ag 4.16040000 2.08020000 10.40100000
Ag 10.40100000 4.16040000 10.40100000
Ag 8.32080000 6.24060000 10.40100000
Ag 22.88220000 12.48120000 10.40100000
Ag 20.80200000 14.56140000 10.40100000
Ag 14.56140000 4.16040000 10.40100000
Ag 12.48120000 6.24060000 10.40100000
Ag 14.56140000 20.80200000 10.40100000
Ag 12.48120000 22.88220000 10.40100000
Ag 6.24060000 12.48120000 10.40100000
Ag 4.16040000 14.56140000 10.40100000
Ag 18.72180000 16.64160000 10.40100000
Ag 16.64160000 18.72180000 10.40100000
Ag 10.40100000 16.64160000 10.40100000
Ag 8.32080000 18.72180000 10.40100000
Ag 22.88220000 16.64160000 10.40100000
Ag 20.80200000 18.72180000 10.40100000
Ag 6.24060000 20.80200000 10.40100000
Ag 4.16040000 22.88220000 10.40100000
Ag 2.08020000 20.80200000 10.40100000
Ag 0.00000000 22.88220000 10.40100000
Ag 2.08020000 4.16040000 10.40100000
Ag 0.00000000 6.24060000 10.40100000
Ag 18.72180000 0.00000000 10.40100000
Ag 16.64160000 2.08020000 10.40100000
Ag 18.72180000 20.80200000 10.40100000
Ag 16.64160000 22.88220000 10.40100000
Ag 22.88220000 20.80200000 10.40100000
Ag 20.80200000 22.88220000 10.40100000
Ag 20.80200000 0.00000000 12.48120000
Ag 22.88220000 2.08020000 12.48120000
Ag 12.48120000 16.64160000 12.48120000
Ag 14.56140000 18.72180000 12.48120000
Ag 4.16040000 16.64160000 12.48120000
Ag 6.24060000 18.72180000 12.48120000
Ag 16.64160000 8.32080000 12.48120000
Ag 18.72180000 10.40100000 12.48120000
Ag 12.48120000 4.16040000 12.48120000
Ag 14.56140000 6.24060000 12.48120000
Ag 0.00000000 12.48120000 12.48120000
Ag 2.08020000 14.56140000 12.48120000
Ag 8.32080000 8.32080000 12.48120000
Ag 10.40100000 10.40100000 12.48120000
Ag 20.80200000 4.16040000 12.48120000
Ag 22.88220000 6.24060000 12.48120000
Ag 8.32080000 0.00000000 12.48120000
Ag 10.40100000 2.08020000 12.48120000
Ag 2.08020000 2.08020000 12.48120000
Ag 0.00000000 0.00000000 12.48120000
Ag 12.48120000 20.80200000 12.48120000
Ag 14.56140000 22.88220000 12.48120000
Ag 16.64160000 12.48120000 12.48120000
Ag 18.72180000 14.56140000 12.48120000
Ag 0.00000000 4.16040000 12.48120000
Ag 2.08020000 6.24060000 12.48120000
Ag 8.32080000 20.80200000 12.48120000
Ag 10.40100000 22.88220000 12.48120000
Ag 20.80200000 8.32080000 12.48120000
Ag 22.88220000 10.40100000 12.48120000
Ag 12.48120000 8.32080000 12.48120000
Ag 14.56140000 10.40100000 12.48120000
Ag 4.16040000 12.48120000 12.48120000
Ag 6.24060000 14.56140000 12.48120000
Ag 0.00000000 16.64160000 12.48120000
Ag 2.08020000 18.72180000 12.48120000
Ag 0.00000000 8.32080000 12.48120000
Ag 2.08020000 10.40100000 12.48120000
Ag 16.64160000 16.64160000 12.48120000
Ag 18.72180000 18.72180000 12.48120000
Ag 16.64160000 0.00000000 12.48120000
Ag 18.72180000 2.08020000 12.48120000
Ag 20.80200000 12.48120000 12.48120000
Ag 22.88220000 14.56140000 12.48120000
Ag 8.32080000 12.48120000 12.48120000
Ag 10.40100000 14.56140000 12.48120000
Ag 4.16040000 20.80200000 12.48120000
Ag 6.24060000 22.88220000 12.48120000
Ag 8.32080000 4.16040000 12.48120000
Ag 10.40100000 6.24060000 12.48120000
Ag 12.48120000 12.48120000 12.48120000
Ag 14.56140000 14.56140000 12.48120000
Ag 12.48120000 0.00000000 12.48120000
Ag 14.56140000 2.08020000 12.48120000
Ag 16.64160000 20.80200000 12.48120000
Ag 18.72180000 22.88220000 12.48120000
Ag 20.80200000 16.64160000 12.48120000
Ag 22.88220000 18.72180000 12.48120000
Ag 4.16040000 8.32080000 12.48120000
Ag 6.24060000 10.40100000 12.48120000
Ag 16.64160000 4.16040000 12.48120000
Ag 18.72180000 6.24060000 12.48120000
Ag 0.00000000 20.80200000 12.48120000
Ag 2.08020000 22.88220000 12.48120000
Ag 4.16040000 4.16040000 12.48120000
Ag 6.24060000 6.24060000 12.48120000
Ag 4.16040000 0.00000000 12.48120000
Ag 6.24060000 2.08020000 12.48120000
Ag 8.32080000 16.64160000 12.48120000
Ag 10.40100000 18.72180000 12.48120000
Ag 20.80200000 20.80200000 12.48120000
Ag 22.88220000 22.88220000 12.48120000
Ag 2.08020000 8.32080000 14.56140000
Ag 0.00000000 10.40100000 14.56140000
Ag 6.24060000 12.48120000 14.56140000
Ag 4.16040000 14.56140000 14.56140000
Ag 18.72180000 12.48120000 14.56140000
Ag 16.64160000 14.56140000 14.56140000
Ag 22.88220000 4.16040000 14.56140000
Ag 20.80200000 6.24060000 14.56140000
Ag 14.56140000 0.00000000 14.56140000
Ag 12.48120000 2.08020000 14.56140000
Ag 10.40100000 0.00000000 14.56140000
Ag 8.32080000 2.08020000 14.56140000
Ag 6.24060000 0.00000000 14.56140000
Ag 4.16040000 2.08020000 14.56140000
Ag 18.72180000 0.00000000 14.56140000
Ag 16.64160000 2.08020000 14.56140000
Ag 14.56140000 12.48120000 14.56140000
Ag 12.48120000 14.56140000 14.56140000
Ag 10.40100000 16.64160000 14.56140000
Ag 8.32080000 18.72180000 14.56140000
Ag 10.40100000 8.32080000 14.56140000
Ag 8.32080000 10.40100000 14.56140000
Ag 22.88220000 8.32080000 14.56140000
Ag 20.80200000 10.40100000 14.56140000
Ag 18.72180000 16.64160000 14.56140000
Ag 16.64160000 18.72180000 14.56140000
Ag 6.24060000 8.32080000 14.56140000
Ag 4.16040000 10.40100000 14.56140000
Ag 6.24060000 4.16040000 14.56140000
Ag 4.16040000 6.24060000 14.56140000
Ag 2.08020000 4.16040000 14.56140000
Ag 0.00000000 6.24060000 14.56140000
Ag 14.56140000 4.16040000 14.56140000
Ag 12.48120000 6.24060000 14.56140000
Ag 18.72180000 4.16040000 14.56140000
Ag 16.64160000 6.24060000 14.56140000
Ag 6.24060000 20.80200000 14.56140000
Ag 4.16040000 22.88220000 14.56140000
Ag 22.88220000 12.48120000 14.56140000
Ag 20.80200000 14.56140000 14.56140000
Ag 14.56140000 16.64160000 14.56140000
Ag 12.48120000 18.72180000 14.56140000
Ag 18.72180000 20.80200000 14.56140000
Ag 16.64160000 22.88220000 14.56140000
Ag 2.08020000 16.64160000 14.56140000
Ag 0.00000000 18.72180000 14.56140000
Ag 2.08020000 12.48120000 14.56140000
Ag 0.00000000 14.56140000 14.56140000
Ag 10.40100000 20.80200000 14.56140000
Ag 8.32080000 22.88220000 14.56140000
Ag 10.40100000 4.16040000 14.56140000
Ag 8.32080000 6.24060000 14.56140000
Ag 10.40100000 12.48120000 14.56140000
Ag 8.32080000 14.56140000 14.56140000
Ag 22.88220000 16.64160000 14.56140000
Ag 20.80200000 18.72180000 14.56140000
Ag 18.72180000 8.32080000 14.56140000
Ag 16.64160000 10.40100000 14.56140000
Ag 0.00000000 2.08020000 14.56140000
Ag 2.08020000 0.00000000 14.56140000
Ag 22.88220000 0.00000000 14.56140000
Ag 20.80200000 2.08020000 14.56140000
Ag 14.56140000 8.32080000 14.56140000
Ag 12.48120000 10.40100000 14.56140000
Ag 14.56140000 20.80200000 14.56140000
Ag 12.48120000 22.88220000 14.56140000
Ag 6.24060000 16.64160000 14.56140000
Ag 4.16040000 18.72180000 14.56140000
Ag 2.08020000 20.80200000 14.56140000
Ag 0.00000000 22.88220000 14.56140000
Ag 22.88220000 20.80200000 14.56140000
Ag 20.80200000 22.88220000 14.56140000
Ag 8.32080000 20.80200000 16.64160000
Ag 10.40100000 22.88220000 16.64160000
Ag 2.08020000 2.08020000 16.64160000
Ag 0.00000000 0.00000000 16.64160000
Ag 0.00000000 4.16040000 16.64160000
Ag 2.08020000 6.24060000 16.64160000
Ag 12.48120000 16.64160000 16.64160000
Ag 14.56140000 18.72180000 16.64160000
Ag 16.64160000 16.64160000 16.64160000
Ag 18.72180000 18.72180000 16.64160000
Ag 8.32080000 0.00000000 16.64160000
Ag 10.40100000 2.08020000 16.64160000
Ag 16.64160000 4.16040000 16.64160000
Ag 18.72180000 6.24060000 16.64160000
Ag 0.00000000 20.80200000 16.64160000
Ag 2.08020000 22.88220000 16.64160000
Ag 20.80200000 8.32080000 16.64160000
Ag 22.88220000 10.40100000 16.64160000
Ag 0.00000000 12.48120000 16.64160000
Ag 2.08020000 14.56140000 16.64160000
Ag 0.00000000 16.64160000 16.64160000
Ag 2.08020000 18.72180000 16.64160000
Ag 12.48120000 8.32080000 16.64160000
Ag 14.56140000 10.40100000 16.64160000
Ag 8.32080000 8.32080000 16.64160000
Ag 10.40100000 10.40100000 16.64160000
Ag 4.16040000 20.80200000 16.64160000
Ag 6.24060000 22.88220000 16.64160000
Ag 16.64160000 20.80200000 16.64160000
Ag 18.72180000 22.88220000 16.64160000
Ag 12.48120000 0.00000000 16.64160000
Ag 14.56140000 2.08020000 16.64160000
Ag 12.48120000 20.80200000 16.64160000
Ag 14.56140000 22.88220000 16.64160000
Ag 20.80200000 12.48120000 16.64160000
Ag 22.88220000 14.56140000 16.64160000
Ag 16.64160000 8.32080000 16.64160000
Ag 18.72180000 10.40100000 16.64160000
Ag 8.32080000 16.64160000 16.64160000
Ag 10.40100000 18.72180000 16.64160000
Ag 4.16040000 0.00000000 16.64160000
Ag 6.24060000 2.08020000 16.64160000
Ag 0.00000000 8.32080000 16.64160000
Ag 2.08020000 10.40100000 16.64160000
Ag 4.16040000 16.64160000 16.64160000
Ag 6.24060000 18.72180000 16.64160000
Ag 4.16040000 4.16040000 16.64160000
Ag 6.24060000 6.24060000 16.64160000
Ag 20.80200000 0.00000000 16.64160000
Ag 22.88220000 2.08020000 16.64160000
Ag 12.48120000 12.48120000 16.64160000
Ag 14.56140000 14.56140000 16.64160000
Ag 20.80200000 16.64160000 16.64160000
Ag 22.88220000 18.72180000 16.64160000
Ag 8.32080000 4.16040000 16.64160000
Ag 10.40100000 6.24060000 16.64160000
Ag 4.16040000 12.48120000 16.64160000
Ag 6.24060000 14.56140000 16.64160000
Ag 16.64160000 12.48120000 16.64160000
Ag 18.72180000 14.56140000 16.64160000
Ag 16.64160000 0.00000000 16.64160000
Ag 18.72180000 2.08020000 16.64160000
Ag 4.16040000 8.32080000 16.64160000
Ag 6.24060000 10.40100000 16.64160000
Ag 12.48120000 4.16040000 16.64160000
Ag 14.56140000 6.24060000 16.64160000
Ag 8.32080000 12.48120000 16.64160000
Ag 10.40100000 14.56140000 16.64160000
Ag 20.80200000 4.16040000 16.64160000
Ag 22.88220000 6.24060000 16.64160000
Ag 20.80200000 20.80200000 16.64160000
Ag 22.88220000 22.88220000 16.64160000
Ag 2.08020000 4.16040000 18.72180000
Ag 0.00000000 6.24060000 18.72180000
Ag 10.40100000 0.00000000 18.72180000
Ag 8.32080000 2.08020000 18.72180000
Ag 14.56140000 20.80200000 18.72180000
Ag 12.48120000 22.88220000 18.72180000
Ag 10.40100000 12.48120000 18.72180000
Ag 8.32080000 14.56140000 18.72180000
Ag 6.24060000 4.16040000 18.72180000
Ag 4.16040000 6.24060000 18.72180000
Ag 22.88220000 8.32080000 18.72180000
Ag 20.80200000 10.40100000 18.72180000
Ag 2.08020000 20.80200000 18.72180000
Ag 0.00000000 22.88220000 18.72180000
Ag 18.72180000 8.32080000 18.72180000
Ag 16.64160000 10.40100000 18.72180000
Ag 18.72180000 20.80200000 18.72180000
Ag 16.64160000 22.88220000 18.72180000
Ag 14.56140000 12.48120000 18.72180000
Ag 12.48120000 14.56140000 18.72180000
Ag 10.40100000 20.80200000 18.72180000
Ag 8.32080000 22.88220000 18.72180000
Ag 14.56140000 4.16040000 18.72180000
Ag 12.48120000 6.24060000 18.72180000
Ag 6.24060000 20.80200000 18.72180000
Ag 4.16040000 22.88220000 18.72180000
Ag 6.24060000 8.32080000 18.72180000
Ag 4.16040000 10.40100000 18.72180000
Ag 6.24060000 16.64160000 18.72180000
Ag 4.16040000 18.72180000 18.72180000
Ag 22.88220000 12.48120000 18.72180000
Ag 20.80200000 14.56140000 18.72180000
Ag 18.72180000 0.00000000 18.72180000
Ag 16.64160000 2.08020000 18.72180000
Ag 10.40100000 8.32080000 18.72180000
Ag 8.32080000 10.40100000 18.72180000
Ag 6.24060000 12.48120000 18.72180000
Ag 4.16040000 14.56140000 18.72180000
Ag 22.88220000 0.00000000 18.72180000
Ag 20.80200000 2.08020000 18.72180000
Ag 18.72180000 12.48120000 18.72180000
Ag 16.64160000 14.56140000 18.72180000
Ag 2.08020000 16.64160000 18.72180000
Ag 0.00000000 18.72180000 18.72180000
Ag 0.00000000 2.08020000 18.72180000
Ag 2.08020000 0.00000000 18.72180000
Ag 14.56140000 16.64160000 18.72180000
Ag 12.48120000 18.72180000 18.72180000
Ag 10.40100000 16.64160000 18.72180000
Ag 8.32080000 18.72180000 18.72180000
Ag 22.88220000 16.64160000 18.72180000
Ag 20.80200000 18.72180000 18.72180000
Ag 2.08020000 8.32080000 18.72180000
Ag 0.00000000 10.40100000 18.72180000
Ag 14.56140000 8.32080000 18.72180000
Ag 12.48120000 10.40100000 18.72180000
Ag 14.56140000 0.00000000 18.72180000
Ag 12.48120000 2.08020000 18.72180000
Ag 18.72180000 4.16040000 18.72180000
Ag 16.64160000 6.24060000 18.72180000
Ag 22.88220000 4.16040000 18.72180000
Ag 20.80200000 6.24060000 18.72180000
Ag 10.40100000 4.16040000 18.72180000
Ag 8.32080000 6.24060000 18.72180000
Ag 18.72180000 16.64160000 18.72180000
Ag 16.64160000 18.72180000 18.72180000
Ag 6.24060000 0.00000000 18.72180000
Ag 4.16040000 2.08020000 18.72180000
Ag 2.08020000 12.48120000 18.72180000
Ag 0.00000000 14.56140000 18.72180000
Ag 22.88220000 20.80200000 18.72180000
Ag 20.80200000 22.88220000 18.72180000
Ag 8.32080000 0.00000000 20.80200000
Ag 10.40100000 2.08020000 20.80200000
Ag 16.64160000 20.80200000 20.80200000
Ag 18.72180000 22.88220000 20.80200000
Ag 20.80200000 8.32080000 20.80200000
Ag 22.88220000 10.40100000 20.80200000
Ag 4.16040000 12.48120000 20.80200000
Ag 6.24060000 14.56140000 20.80200000
Ag 16.64160000 0.00000000 20.80200000
Ag 18.72180000 2.08020000 20.80200000
Ag 12.48120000 0.00000000 20.80200000
Ag 14.56140000 2.08020000 20.80200000
Ag 4.16040000 20.80200000 20.80200000
Ag 6.24060000 22.88220000 20.80200000
Ag 12.48120000 16.64160000 20.80200000
Ag 14.56140000 18.72180000 20.80200000
Ag 12.48120000 8.32080000 20.80200000
Ag 14.56140000 10.40100000 20.80200000
Ag 4.16040000 16.64160000 20.80200000
Ag 6.24060000 18.72180000 20.80200000
Ag 16.64160000 12.48120000 20.80200000
Ag 18.72180000 14.56140000 20.80200000
Ag 8.32080000 12.48120000 20.80200000
Ag 10.40100000 14.56140000 20.80200000
Ag 4.16040000 0.00000000 20.80200000
Ag 6.24060000 2.08020000 20.80200000
Ag 20.80200000 12.48120000 20.80200000
Ag 22.88220000 14.56140000 20.80200000
Ag 20.80200000 0.00000000 20.80200000
Ag 22.88220000 2.08020000 20.80200000
Ag 0.00000000 16.64160000 20.80200000
Ag 2.08020000 18.72180000 20.80200000
Ag 0.00000000 20.80200000 20.80200000
Ag 2.08020000 22.88220000 20.80200000
Ag 2.08020000 2.08020000 20.80200000
Ag 0.00000000 0.00000000 20.80200000
Ag 16.64160000 4.16040000 20.80200000
Ag 18.72180000 6.24060000 20.80200000
Ag 8.32080000 20.80200000 20.80200000
Ag 10.40100000 22.88220000 20.80200000
Ag 8.32080000 8.32080000 20.80200000
Ag 10.40100000 10.40100000 20.80200000
Ag 4.16040000 4.16040000 20.80200000
Ag 6.24060000 6.24060000 20.80200000
Ag 12.48120000 20.80200000 20.80200000
Ag 14.56140000 22.88220000 20.80200000
Ag 16.64160000 16.64160000 20.80200000
Ag 18.72180000 18.72180000 20.80200000
Ag 20.80200000 16.64160000 20.80200000
Ag 22.88220000 18.72180000 20.80200000
Ag 12.48120000 4.16040000 20.80200000
Ag 14.56140000 6.24060000 20.80200000
Ag 20.80200000 4.16040000 20.80200000
Ag 22.88220000 6.24060000 20.80200000
Ag 12.48120000 12.48120000 20.80200000
Ag 14.56140000 14.56140000 20.80200000
Ag 0.00000000 12.48120000 20.80200000
Ag 2.08020000 14.56140000 20.80200000
Ag 0.00000000 4.16040000 20.80200000
Ag 2.08020000 6.24060000 20.80200000
Ag 8.32080000 4.16040000 20.80200000
Ag 10.40100000 6.24060000 20.80200000
Ag 4.16040000 8.32080000 20.80200000
Ag 6.24060000 10.40100000 20.80200000
Ag 16.64160000 8.32080000 20.80200000
Ag 18.72180000 10.40100000 20.80200000
Ag 8.32080000 16.64160000 20.80200000
Ag 10.40100000 18.72180000 20.80200000
Ag 0.00000000 8.32080000 20.80200000
Ag 2.08020000 10.40100000 20.80200000
Ag 20.80200000 20.80200000 20.80200000
Ag 22.88220000 22.88220000 20.80200000
Ag 10.40100000 0.00000000 22.88220000
Ag 8.32080000 2.08020000 22.88220000
Ag 6.24060000 20.80200000 22.88220000
Ag 4.16040000 22.88220000 22.88220000
Ag 18.72180000 12.48120000 22.88220000
Ag 16.64160000 14.56140000 22.88220000
Ag 14.56140000 4.16040000 22.88220000
Ag 12.48120000 6.24060000 22.88220000
Ag 2.08020000 0.00000000 22.88220000
Ag 0.00000000 2.08020000 22.88220000
Ag 10.40100000 16.64160000 22.88220000
Ag 8.32080000 18.72180000 22.88220000
Ag 18.72180000 4.16040000 22.88220000
Ag 16.64160000 6.24060000 22.88220000
Ag 14.56140000 12.48120000 22.88220000
Ag 12.48120000 14.56140000 22.88220000
Ag 22.88220000 0.00000000 22.88220000
Ag 20.80200000 2.08020000 22.88220000
Ag 14.56140000 20.80200000 22.88220000
Ag 12.48120000 22.88220000 22.88220000
Ag 6.24060000 4.16040000 22.88220000
Ag 4.16040000 6.24060000 22.88220000
Ag 22.88220000 12.48120000 22.88220000
Ag 20.80200000 14.56140000 22.88220000
Ag 2.08020000 16.64160000 22.88220000
Ag 0.00000000 18.72180000 22.88220000
Ag 2.08020000 12.48120000 22.88220000
Ag 0.00000000 14.56140000 22.88220000
Ag 6.24060000 0.00000000 22.88220000
Ag 4.16040000 2.08020000 22.88220000
Ag 10.40100000 12.48120000 22.88220000
Ag 8.32080000 14.56140000 22.88220000
Ag 18.72180000 16.64160000 22.88220000
Ag 16.64160000 18.72180000 22.88220000
Ag 14.56140000 0.00000000 22.88220000
Ag 12.48120000 2.08020000 22.88220000
Ag 6.24060000 8.32080000 22.88220000
Ag 4.16040000 10.40100000 22.88220000
Ag 2.08020000 20.80200000 22.88220000
Ag 0.00000000 22.88220000 22.88220000
Ag 2.08020000 8.32080000 22.88220000
Ag 0.00000000 10.40100000 22.88220000
Ag 22.88220000 4.16040000 22.88220000
Ag 20.80200000 6.24060000 22.88220000
Ag 18.72180000 8.32080000 22.88220000
Ag 16.64160000 10.40100000 22.88220000
Ag 22.88220000 16.64160000 22.88220000
Ag 20.80200000 18.72180000 22.88220000
Ag 14.56140000 8.32080000 22.88220000
Ag 12.48120000 10.40100000 22.88220000
Ag 10.40100000 8.32080000 22.88220000
Ag 8.32080000 10.40100000 22.88220000
Ag 18.72180000 0.00000000 22.88220000
Ag 16.64160000 2.08020000 22.88220000
Ag 14.56140000 16.64160000 22.88220000
Ag 12.48120000 18.72180000 22.88220000
Ag 6.24060000 12.48120000 22.88220000
Ag 4.16040000 14.56140000 22.88220000
Ag 2.08020000 4.16040000 22.88220000
Ag 0.00000000 6.24060000 22.88220000
Ag 18.72180000 20.80200000 22.88220000
Ag 16.64160000 22.88220000 22.88220000
Ag 10.40100000 20.80200000 22.88220000
Ag 8.32080000 22.88220000 22.88220000
Ag 10.40100000 4.16040000 22.88220000
Ag 8.32080000 6.24060000 22.88220000
Ag 6.24060000 16.64160000 22.88220000
Ag 4.16040000 18.72180000 22.88220000
Ag 22.88220000 8.32080000 22.88220000
Ag 20.80200000 10.40100000 22.88220000
Ag 22.88220000 20.80200000 22.88220000
Ag 20.80200000 22.88220000 22.88220000
